Ga Co  S Ti  H                          
   1.0000000000000000     
    10.5928543363479211   -0.0000000001189645   -0.0000000000000000
    -5.2964271183739111    9.1736831578542883    0.0000000000000000
     0.0000000000000000    0.0000000000000000   29.7676792058954724
   Ga   Co   S    Ti   H 
    18     9    35     1     1
Direct
  0.1700801472206167  0.2794846559902243  0.5923543040125986
  0.2785787555849267  0.1680155200826202  0.3696934701857709
  0.1658279355821493  0.6094340368038016  0.5922474921794975
  0.2785787546887988  0.4994517337464003  0.3696934701857709
  0.1658279346863592  0.9452830654280876  0.5922474921794975
  0.2777778329655831  0.8333331669977753  0.3702454523961122
  0.5195063263192474  0.3167908181883033  0.5907224988244736
  0.6116592666616334  0.1680155200826180  0.3696934701857709
  0.5195063254308272  0.5916046742390800  0.5907224988244736
  0.6111111661783042  0.4999998333333338  0.3682036974820018
  0.5016769619615762  0.9452830654281019  0.5922474921794975
  0.6116592648690975  0.8325322461709779  0.3696934701857709
  0.8316263432199946  0.2794846559902311  0.5923543040125986
  0.9444444993910253  0.1666664996688922  0.3701067665202725
  0.7943201801181801  0.5916046742392829  0.5907224988244736
  0.9430954780808816  0.4994517337464029  0.3696934701857709
  0.8316263414276291  0.9410308546862109  0.5923543040125986
  0.9430954771844806  0.8325322461709826  0.3696934701857709
  0.0558621527057157  0.0552488492544250  0.4807811851350829
  0.0558621518093933  0.3895021338311588  0.4807811851350829
  0.0548371911097645  0.7218630121375076  0.4801729052863252
  0.3892479894679148  0.0562738090583030  0.4801729052863252
  0.3901789317798602  0.3895338822018319  0.4793860755554833
  0.3892479876746941  0.7218630121375230  0.4801729052863252
  0.7216088664262139  0.0552488492544252  0.4807811851350829
  0.7215771171587987  0.3895338822018430  0.4793860755554833
  0.7215771162629137  0.7209320689296590  0.4793860755554833
  0.2775223225757398  0.1669947221608308  0.4453593400122472
  0.1674629624647948  0.2781760636122896  0.5160407158401559
  0.2838420293465779  0.1697054306672732  0.6260848995625885
  0.1662769820655456  0.2775830734128161  0.3326823831954915
  0.2775223216797753  0.4994160986591927  0.4453593400122472
  0.1668801781633912  0.6115385219662849  0.5160131696834421
  0.2838420284509078  0.5030250969223256  0.6260848995625885
  0.1666515150298045  0.6110811956990950  0.3335525299417502
  0.2777778329655831  0.8333331669977753  0.4456989802566044
  0.1668801772675692  0.9442308228468466  0.5160131696834421
  0.2777778329655831  0.8333331669977753  0.6274355777866122
  0.1666515141333660  0.9444594859804492  0.3335525299417502
  0.6116949017490264  0.1669947221608237  0.4453593400122472
  0.5003231814249863  0.2784245283995835  0.5145294283660041
  0.6080859034846233  0.1697054306672986  0.6260848995625885
  0.4995088523891468  0.2767958703279012  0.3319805164424326
  0.6111111661783042  0.4999998333333338  0.4438430754126648
  0.5003231805288847  0.6107878191335387  0.5145294283660041
  0.4995088514929126  0.6116021481693813  0.3319805164424326
  0.6116948999564646  0.8335886791799761  0.4453593400122472
  0.4995724767991240  0.9442308228468597  0.5160131696834421
  0.6080859016936186  0.8272689724103607  0.6260848995625885
  0.5000298030669137  0.9444594859804465  0.3335525299417502
  0.9444444993910253  0.1666664996688922  0.4457194146968217
  0.8329349355978820  0.2781760636122976  0.5160407158401559
  0.9444444993910253  0.1666664996688922  0.6264044277781682
  0.8335279257976577  0.2775830734128165  0.3326823831954915
  0.9441162760027012  0.4994160986591946  0.4453593400122472
  0.8326864699143834  0.6107878191335441  0.5145294283660041
  0.9414055674947089  0.5030250969223674  0.6260848995625885
  0.8343151279861952  0.6116021481693836  0.3319805164424326
  0.9441162751061107  0.8335886791799852  0.4453593400122472
  0.8329349338055638  0.9436480394420792  0.5160407158401559
  0.9414055665993812  0.8272689724103773  0.6260848995625885
  0.8335279240050371  0.9448340198410339  0.3326823831954915
  0.6111109439560849  0.5000000555555530  0.6546608624818389
  0.6111109439560849  0.5000000555555530  0.7134635951612557

  0.00000000E+00  0.00000000E+00  0.00000000E+00
  0.00000000E+00  0.00000000E+00  0.00000000E+00
  0.00000000E+00  0.00000000E+00  0.00000000E+00
  0.00000000E+00  0.00000000E+00  0.00000000E+00
  0.00000000E+00  0.00000000E+00  0.00000000E+00
  0.00000000E+00  0.00000000E+00  0.00000000E+00
  0.00000000E+00  0.00000000E+00  0.00000000E+00
  0.00000000E+00  0.00000000E+00  0.00000000E+00
  0.00000000E+00  0.00000000E+00  0.00000000E+00
  0.00000000E+00  0.00000000E+00  0.00000000E+00
  0.00000000E+00  0.00000000E+00  0.00000000E+00
  0.00000000E+00  0.00000000E+00  0.00000000E+00
  0.00000000E+00  0.00000000E+00  0.00000000E+00
  0.00000000E+00  0.00000000E+00  0.00000000E+00
  0.00000000E+00  0.00000000E+00  0.00000000E+00
  0.00000000E+00  0.00000000E+00  0.00000000E+00
  0.00000000E+00  0.00000000E+00  0.00000000E+00
  0.00000000E+00  0.00000000E+00  0.00000000E+00
  0.00000000E+00  0.00000000E+00  0.00000000E+00
  0.00000000E+00  0.00000000E+00  0.00000000E+00
  0.00000000E+00  0.00000000E+00  0.00000000E+00
  0.00000000E+00  0.00000000E+00  0.00000000E+00
  0.00000000E+00  0.00000000E+00  0.00000000E+00
  0.00000000E+00  0.00000000E+00  0.00000000E+00
  0.00000000E+00  0.00000000E+00  0.00000000E+00
  0.00000000E+00  0.00000000E+00  0.00000000E+00
  0.00000000E+00  0.00000000E+00  0.00000000E+00
  0.00000000E+00  0.00000000E+00  0.00000000E+00
  0.00000000E+00  0.00000000E+00  0.00000000E+00
  0.00000000E+00  0.00000000E+00  0.00000000E+00
  0.00000000E+00  0.00000000E+00  0.00000000E+00
  0.00000000E+00  0.00000000E+00  0.00000000E+00
  0.00000000E+00  0.00000000E+00  0.00000000E+00
  0.00000000E+00  0.00000000E+00  0.00000000E+00
  0.00000000E+00  0.00000000E+00  0.00000000E+00
  0.00000000E+00  0.00000000E+00  0.00000000E+00
  0.00000000E+00  0.00000000E+00  0.00000000E+00
  0.00000000E+00  0.00000000E+00  0.00000000E+00
  0.00000000E+00  0.00000000E+00  0.00000000E+00
  0.00000000E+00  0.00000000E+00  0.00000000E+00
  0.00000000E+00  0.00000000E+00  0.00000000E+00
  0.00000000E+00  0.00000000E+00  0.00000000E+00
  0.00000000E+00  0.00000000E+00  0.00000000E+00
  0.00000000E+00  0.00000000E+00  0.00000000E+00
  0.00000000E+00  0.00000000E+00  0.00000000E+00
  0.00000000E+00  0.00000000E+00  0.00000000E+00
  0.00000000E+00  0.00000000E+00  0.00000000E+00
  0.00000000E+00  0.00000000E+00  0.00000000E+00
  0.00000000E+00  0.00000000E+00  0.00000000E+00
  0.00000000E+00  0.00000000E+00  0.00000000E+00
  0.00000000E+00  0.00000000E+00  0.00000000E+00
  0.00000000E+00  0.00000000E+00  0.00000000E+00
  0.00000000E+00  0.00000000E+00  0.00000000E+00
  0.00000000E+00  0.00000000E+00  0.00000000E+00
  0.00000000E+00  0.00000000E+00  0.00000000E+00
  0.00000000E+00  0.00000000E+00  0.00000000E+00
  0.00000000E+00  0.00000000E+00  0.00000000E+00
  0.00000000E+00  0.00000000E+00  0.00000000E+00
  0.00000000E+00  0.00000000E+00  0.00000000E+00
  0.00000000E+00  0.00000000E+00  0.00000000E+00
  0.00000000E+00  0.00000000E+00  0.00000000E+00
  0.00000000E+00  0.00000000E+00  0.00000000E+00
  0.00000000E+00  0.00000000E+00  0.00000000E+00
  0.00000000E+00  0.00000000E+00  0.00000000E+00
