Ga Co  S  V                             
   1.0000000000000000     
    10.6073726811982674   -0.0000000000436497    0.0000000000000000
    -5.3036862906654614    9.1862564220961769   -0.0000000000000000
     0.0000000000000000    0.0000000000000000   29.7429980590891176
   Ga   Co   S    V 
    18     9    35     1
Direct
  0.1709938866813314  0.2799415257213329  0.5924945200835835
  0.2787788445792966  0.1682969918843456  0.3696982812545400
  0.1655093085645648  0.6087967827686481  0.5919225960443523
  0.2787788436830211  0.4993703509392011  0.3696982812545400
  0.1655093076693863  0.9456016924456567  0.5919225960443523
  0.2777778329655831  0.8333331669977753  0.3703447966513441
  0.5196411262860210  0.3170604181208297  0.5915438588012631
  0.6117406494689925  0.1682969918843393  0.3696982812545400
  0.5196411253578628  0.5914698742733273  0.5915438588012631
  0.6111111661783042  0.4999998333333338  0.3680282629495572
  0.5023142159961335  0.9456016924456859  0.5919225960443523
  0.6117406476761531  0.8323321571764598  0.3696982812545400
  0.8311694734903889  0.2799415257213012  0.5924945200835835
  0.9444444993910253  0.1666664996688922  0.3702967551290745
  0.7940505802243709  0.5914698742725093  0.5915438588012631
  0.9428140062794557  0.4993703509391960  0.3696982812545400
  0.8311694716965203  0.9401171152240323  0.5924945200835835
  0.9428140053828988  0.8323321571764609  0.3696982812545400
  0.0557309789095068  0.0553800230501851  0.4807837357540590
  0.0557309780136451  0.3892397862396507  0.4807837357540590
  0.0539091562417761  0.7213989947034583  0.4802188906404462
  0.3897120069019643  0.0572018439263990  0.4802188906404462
  0.3909925828219304  0.3899407077229973  0.4792569674322319
  0.3897120051086332  0.7213989947034762  0.4802188906404462
  0.7218712140181710  0.0553800230501734  0.4807837357540590
  0.7211702916378943  0.3899407077230016  0.4792569674322319
  0.7211702907417485  0.7201184178873345  0.4792569674322319
  0.2779714174665646  0.1675566821167311  0.4454440744042339
  0.1683929707941938  0.2786410677770660  0.5161080424431045
  0.2826948836381594  0.1681800517574908  0.6259929046854223
  0.1660840907013572  0.2774866277308148  0.3327459336797323
  0.2779714165702630  0.4993032335939067  0.4454440744042339
  0.1667257000196166  0.6112295656787344  0.5156972463305486
  0.2826948827419615  0.5034033301223139  0.6259929046854223
  0.1665848761510395  0.6109479179415649  0.3337332448318773
  0.2777778329655831  0.8333331669977753  0.4460007505214202
  0.1667256991237632  0.9443853009906219  0.5156972463305486
  0.2777778329655831  0.8333331669977753  0.6266023809738066
  0.1665848752545762  0.9445261248592147  0.3337332448318773
  0.6118077668141108  0.1675566821167294  0.4454440744042339
  0.5006799306001019  0.2791380267499169  0.5147556560399043
  0.6077076702832734  0.1681800517575516  0.6259929046854223
  0.4995496852841392  0.2768775361178858  0.3318850542974248
  0.6111111661783042  0.4999998333333338  0.4438718292453110
  0.5006799297079808  0.6104310699583209  0.5147556560399043
  0.4995496843879051  0.6115613152743893  0.3318850542974248
  0.6118077650214224  0.8331395842893647  0.4454440744042339
  0.4998814330867045  0.9443853009906343  0.5156972463305486
  0.6077076684931161  0.8284161181201327  0.6259929046854223
  0.5001630808244687  0.9445261248592114  0.3337332448318773
  0.9444444993910253  0.1666664996688922  0.4459731132731919
  0.8324699314332596  0.2786410677770703  0.5161080424431045
  0.9444444993910253  0.1666664996688922  0.6258535506194303
  0.8336243714798447  0.2774866277308104  0.3327459336797323
  0.9435543160469185  0.4993032335939054  0.4454440744042339
  0.8319729715601721  0.6104310699584286  0.5147556560399043
  0.9429309464036303  0.5034033301223775  0.6259929046854223
  0.8342334621962108  0.6115613152743913  0.3318850542974248
  0.9435543151505387  0.8331395842893650  0.4454440744042339
  0.8324699296407871  0.9427180311125301  0.5161080424431045
  0.9429309455096783  0.8284161181201356  0.6259929046854223
  0.8336243696870382  0.9450269112050411  0.3327459336797323
  0.6111109439560849  0.5000000555555530  0.6502738939083962

  0.00000000E+00  0.00000000E+00  0.00000000E+00
  0.00000000E+00  0.00000000E+00  0.00000000E+00
  0.00000000E+00  0.00000000E+00  0.00000000E+00
  0.00000000E+00  0.00000000E+00  0.00000000E+00
  0.00000000E+00  0.00000000E+00  0.00000000E+00
  0.00000000E+00  0.00000000E+00  0.00000000E+00
  0.00000000E+00  0.00000000E+00  0.00000000E+00
  0.00000000E+00  0.00000000E+00  0.00000000E+00
  0.00000000E+00  0.00000000E+00  0.00000000E+00
  0.00000000E+00  0.00000000E+00  0.00000000E+00
  0.00000000E+00  0.00000000E+00  0.00000000E+00
  0.00000000E+00  0.00000000E+00  0.00000000E+00
  0.00000000E+00  0.00000000E+00  0.00000000E+00
  0.00000000E+00  0.00000000E+00  0.00000000E+00
  0.00000000E+00  0.00000000E+00  0.00000000E+00
  0.00000000E+00  0.00000000E+00  0.00000000E+00
  0.00000000E+00  0.00000000E+00  0.00000000E+00
  0.00000000E+00  0.00000000E+00  0.00000000E+00
  0.00000000E+00  0.00000000E+00  0.00000000E+00
  0.00000000E+00  0.00000000E+00  0.00000000E+00
  0.00000000E+00  0.00000000E+00  0.00000000E+00
  0.00000000E+00  0.00000000E+00  0.00000000E+00
  0.00000000E+00  0.00000000E+00  0.00000000E+00
  0.00000000E+00  0.00000000E+00  0.00000000E+00
  0.00000000E+00  0.00000000E+00  0.00000000E+00
  0.00000000E+00  0.00000000E+00  0.00000000E+00
  0.00000000E+00  0.00000000E+00  0.00000000E+00
  0.00000000E+00  0.00000000E+00  0.00000000E+00
  0.00000000E+00  0.00000000E+00  0.00000000E+00
  0.00000000E+00  0.00000000E+00  0.00000000E+00
  0.00000000E+00  0.00000000E+00  0.00000000E+00
  0.00000000E+00  0.00000000E+00  0.00000000E+00
  0.00000000E+00  0.00000000E+00  0.00000000E+00
  0.00000000E+00  0.00000000E+00  0.00000000E+00
  0.00000000E+00  0.00000000E+00  0.00000000E+00
  0.00000000E+00  0.00000000E+00  0.00000000E+00
  0.00000000E+00  0.00000000E+00  0.00000000E+00
  0.00000000E+00  0.00000000E+00  0.00000000E+00
  0.00000000E+00  0.00000000E+00  0.00000000E+00
  0.00000000E+00  0.00000000E+00  0.00000000E+00
  0.00000000E+00  0.00000000E+00  0.00000000E+00
  0.00000000E+00  0.00000000E+00  0.00000000E+00
  0.00000000E+00  0.00000000E+00  0.00000000E+00
  0.00000000E+00  0.00000000E+00  0.00000000E+00
  0.00000000E+00  0.00000000E+00  0.00000000E+00
  0.00000000E+00  0.00000000E+00  0.00000000E+00
  0.00000000E+00  0.00000000E+00  0.00000000E+00
  0.00000000E+00  0.00000000E+00  0.00000000E+00
  0.00000000E+00  0.00000000E+00  0.00000000E+00
  0.00000000E+00  0.00000000E+00  0.00000000E+00
  0.00000000E+00  0.00000000E+00  0.00000000E+00
  0.00000000E+00  0.00000000E+00  0.00000000E+00
  0.00000000E+00  0.00000000E+00  0.00000000E+00
  0.00000000E+00  0.00000000E+00  0.00000000E+00
  0.00000000E+00  0.00000000E+00  0.00000000E+00
  0.00000000E+00  0.00000000E+00  0.00000000E+00
  0.00000000E+00  0.00000000E+00  0.00000000E+00
  0.00000000E+00  0.00000000E+00  0.00000000E+00
  0.00000000E+00  0.00000000E+00  0.00000000E+00
  0.00000000E+00  0.00000000E+00  0.00000000E+00
  0.00000000E+00  0.00000000E+00  0.00000000E+00
  0.00000000E+00  0.00000000E+00  0.00000000E+00
  0.00000000E+00  0.00000000E+00  0.00000000E+00
