Ga Co  S Cr  H                          
   1.0000000000000000     
    10.5959601966813057   -0.0000000001019350    0.0000000000000000
    -5.2979800485112234    9.1763729137520329   -0.0000000000000000
     0.0000000000000000   -0.0000000000000000   29.6510303376587530
   Ga   Co   S    Cr   H 
    18     9    35     1     1
Direct
  0.1704486663782468  0.2796689155694591  0.5928168185383135
  0.2785465643988399  0.1675651997155441  0.3694541296562563
  0.1658267429819403  0.6094316516033772  0.5922817805380718
  0.2785465635023949  0.4998698629275426  0.3694541296562563
  0.1658267420858913  0.9452842580283035  0.5922817805380718
  0.2777778329655831  0.8333331669977753  0.3693794992315658
  0.5189076531982870  0.3155934719460463  0.5924549693211963
  0.6112411374806523  0.1675651997155380  0.3694541296562563
  0.5189076522967768  0.5922033473603771  0.5924549693211963
  0.6111111661783042  0.4999998333333338  0.3685440497968087
  0.5016793471622527  0.9452842580283103  0.5922817805380718
  0.6112411356876469  0.8325644373569241  0.3694541296562563
  0.8314420836415993  0.2796689155694443  0.5928168185383135
  0.9444444993910253  0.1666664996688922  0.3698844069866324
  0.7955175263731907  0.5922033473602433  0.5924549693211963
  0.9435457984484187  0.4998698629275331  0.3694541296562563
  0.8314420818483940  0.9406623355277630  0.5928168185383135
  0.9435457975518654  0.8325644373569207  0.3694541296562563
  0.0558703098154949  0.0552406921441993  0.4808982870615083
  0.0558703089196309  0.3895184480516223  0.4808982870615083
  0.0552448680324879  0.7220668505983185  0.4803344290754534
  0.3890441510071041  0.0558661321366535  0.4803344290754534
  0.3906763853202510  0.3897826089723693  0.4799606026364844
  0.3890441492127814  0.7220668505983614  0.4803344290754534
  0.7215925522061973  0.0552406921441877  0.4808982870615083
  0.7213283903889458  0.3897826089723628  0.4799606026364844
  0.7213283894923764  0.7204346153886018  0.4799606026364844
  0.2782194493998512  0.1671374466099372  0.4454355925201310
  0.1678713243835100  0.2783802445717112  0.5161130627027020
  0.2824708318068866  0.1682284070708418  0.6264009944589476
  0.1664615113558805  0.2776753380580217  0.3324863198195587
  0.2782194485037600  0.4999705010347088  0.4454355925201310
  0.1670992595535314  0.6119766847465766  0.5157920733359842
  0.2824708309110832  0.5031309229793961  0.6264009944589476
  0.1664737862333835  0.6107257381062515  0.3327817175959679
  0.2777778329655831  0.8333331669977753  0.4451687397970058
  0.1670992586581523  0.9440117414566952  0.5157920733359842
  0.2777778329655831  0.8333331669977753  0.6273691114147243
  0.1664737853368804  0.9446372147768717  0.3327817175959679
  0.6111404993740249  0.1671374466099170  0.4454355925201310
  0.4999745499737110  0.2777272654970934  0.5154026046852324
  0.6079800774278867  0.1682284070708588  0.6264009944589476
  0.4998036890382909  0.2773855436261912  0.3318213034160999
  0.6111111661783042  0.4999998333333338  0.4446142706484896
  0.4999745490799606  0.6111364505847535  0.5154026046852324
  0.4998036881421277  0.6113073115202358  0.3318213034160999
  0.6111404975808248  0.8328915523553700  0.4454355925201310
  0.4991343140184009  0.9440117414567191  0.5157920733359842
  0.6079800756364185  0.8286401699497332  0.6264009944589476
  0.5003852606598203  0.9446372147768669  0.3327817175959679
  0.9444444993910253  0.1666664996688922  0.4457832959789843
  0.8327307546385886  0.2783802445717159  0.5161130627027020
  0.9444444993910253  0.1666664996688922  0.6265765343080897
  0.8334356611525285  0.2776753380580201  0.3324863198195587
  0.9439735515542290  0.4999705010346944  0.4454355925201310
  0.8333837328145836  0.6111364505848196  0.5154026046852324
  0.9428825910916009  0.5031309229794259  0.6264009944589476
  0.8337254546878365  0.6113073115202393  0.3318213034160999
  0.9439735506571278  0.8328915523553755  0.4454355925201310
  0.8327307528461422  0.9432396775232392  0.5161130627027020
  0.9428825901959427  0.8286401699497460  0.6264009944589476
  0.8334356593598315  0.9446494905506243  0.3324863198195587
  0.6111109439560849  0.5000000555555530  0.6516654101741768
  0.6111109439560849  0.5000000555555530  0.7078361975959975

  0.00000000E+00  0.00000000E+00  0.00000000E+00
  0.00000000E+00  0.00000000E+00  0.00000000E+00
  0.00000000E+00  0.00000000E+00  0.00000000E+00
  0.00000000E+00  0.00000000E+00  0.00000000E+00
  0.00000000E+00  0.00000000E+00  0.00000000E+00
  0.00000000E+00  0.00000000E+00  0.00000000E+00
  0.00000000E+00  0.00000000E+00  0.00000000E+00
  0.00000000E+00  0.00000000E+00  0.00000000E+00
  0.00000000E+00  0.00000000E+00  0.00000000E+00
  0.00000000E+00  0.00000000E+00  0.00000000E+00
  0.00000000E+00  0.00000000E+00  0.00000000E+00
  0.00000000E+00  0.00000000E+00  0.00000000E+00
  0.00000000E+00  0.00000000E+00  0.00000000E+00
  0.00000000E+00  0.00000000E+00  0.00000000E+00
  0.00000000E+00  0.00000000E+00  0.00000000E+00
  0.00000000E+00  0.00000000E+00  0.00000000E+00
  0.00000000E+00  0.00000000E+00  0.00000000E+00
  0.00000000E+00  0.00000000E+00  0.00000000E+00
  0.00000000E+00  0.00000000E+00  0.00000000E+00
  0.00000000E+00  0.00000000E+00  0.00000000E+00
  0.00000000E+00  0.00000000E+00  0.00000000E+00
  0.00000000E+00  0.00000000E+00  0.00000000E+00
  0.00000000E+00  0.00000000E+00  0.00000000E+00
  0.00000000E+00  0.00000000E+00  0.00000000E+00
  0.00000000E+00  0.00000000E+00  0.00000000E+00
  0.00000000E+00  0.00000000E+00  0.00000000E+00
  0.00000000E+00  0.00000000E+00  0.00000000E+00
  0.00000000E+00  0.00000000E+00  0.00000000E+00
  0.00000000E+00  0.00000000E+00  0.00000000E+00
  0.00000000E+00  0.00000000E+00  0.00000000E+00
  0.00000000E+00  0.00000000E+00  0.00000000E+00
  0.00000000E+00  0.00000000E+00  0.00000000E+00
  0.00000000E+00  0.00000000E+00  0.00000000E+00
  0.00000000E+00  0.00000000E+00  0.00000000E+00
  0.00000000E+00  0.00000000E+00  0.00000000E+00
  0.00000000E+00  0.00000000E+00  0.00000000E+00
  0.00000000E+00  0.00000000E+00  0.00000000E+00
  0.00000000E+00  0.00000000E+00  0.00000000E+00
  0.00000000E+00  0.00000000E+00  0.00000000E+00
  0.00000000E+00  0.00000000E+00  0.00000000E+00
  0.00000000E+00  0.00000000E+00  0.00000000E+00
  0.00000000E+00  0.00000000E+00  0.00000000E+00
  0.00000000E+00  0.00000000E+00  0.00000000E+00
  0.00000000E+00  0.00000000E+00  0.00000000E+00
  0.00000000E+00  0.00000000E+00  0.00000000E+00
  0.00000000E+00  0.00000000E+00  0.00000000E+00
  0.00000000E+00  0.00000000E+00  0.00000000E+00
  0.00000000E+00  0.00000000E+00  0.00000000E+00
  0.00000000E+00  0.00000000E+00  0.00000000E+00
  0.00000000E+00  0.00000000E+00  0.00000000E+00
  0.00000000E+00  0.00000000E+00  0.00000000E+00
  0.00000000E+00  0.00000000E+00  0.00000000E+00
  0.00000000E+00  0.00000000E+00  0.00000000E+00
  0.00000000E+00  0.00000000E+00  0.00000000E+00
  0.00000000E+00  0.00000000E+00  0.00000000E+00
  0.00000000E+00  0.00000000E+00  0.00000000E+00
  0.00000000E+00  0.00000000E+00  0.00000000E+00
  0.00000000E+00  0.00000000E+00  0.00000000E+00
  0.00000000E+00  0.00000000E+00  0.00000000E+00
  0.00000000E+00  0.00000000E+00  0.00000000E+00
  0.00000000E+00  0.00000000E+00  0.00000000E+00
  0.00000000E+00  0.00000000E+00  0.00000000E+00
  0.00000000E+00  0.00000000E+00  0.00000000E+00
  0.00000000E+00  0.00000000E+00  0.00000000E+00
