Ga Co  S                                
   1.00000000000000     
    10.5471933728630169   -0.0000000000000000    0.0000000000000000
    -5.2735966864315085    9.1341396099108376    0.0000000000000000
     0.0000000000000000    0.0000000000000000   28.8685630000000018
   Ga   Co   S 
    18     9    35
Direct
  0.1149567468076665  0.2241452067389872  0.6152673767097315
  0.2235743398214114  0.1125895423563803  0.3860351184564662
  0.1104256868034668  0.5541850402735949  0.6155801407589370
  0.2235743398200356  0.4443177974659220  0.3860351184564662
  0.1104256867997468  0.8895743131965335  0.6155801407589370
  0.2222223333333346  0.7777776666666654  0.3863841408140489
  0.4679598900189204  0.2692534467045022  0.6155937137417372
  0.5556822025349654  0.1125895423563803  0.3860351184564662
  0.4679598899329090  0.5320401099810793  0.6155937137417372
  0.5555556666666632  0.4444443333333368  0.3837456167029818
  0.4458149597301253  0.8895743131965335  0.6155801407589370
  0.5556822025327021  0.7764256601777006  0.3860351184564662
  0.7758547932646525  0.2241452067389872  0.6152673767097315
  0.8888889999999989  0.1111110000000011  0.3861435790938577
  0.7307465533815093  0.5320401099810793  0.6155937137417372
  0.8874104576458836  0.4443177974659220  0.3860351184564662
  0.7758547932610129  0.8850432531886939  0.6152673767097315
  0.8874104576449957  0.7764256601777006  0.3860351184564662
  0.0000820901842591 -0.0000820901856803  0.5005804768842828
  0.0000820901856803  0.3334975137046962  0.5005804768842828
 -0.0017758081464719  0.6657787625877821  0.5004216389495942
  0.3342212374122183  0.0017758081577652  0.5004216389495942
  0.3353367030974052  0.3343350182156472  0.4985278033539660
  0.3342212374009251  0.6657787625877821  0.5004216389495942
  0.6665024862967249 -0.0000820901856803  0.5005804768842828
  0.6656649817849061  0.3343350182156472  0.4985278033539660
  0.6656649817843525  0.6646632969020414  0.4985278033539660
  0.2228727891304165  0.1114583676097795  0.4640747550205661
  0.1123198949464328  0.2228267808063784  0.5366038573268387
  0.2304533008456462  0.1161776057741720  0.6506808066999483
  0.1111795498099879  0.2222566082385215  0.3475814444989635
  0.2228727891308485  0.4447474215223933  0.4640747550205661
  0.1112346306542694  0.5558029279752000  0.5370666390158970
  0.2304533008435234  0.4476086950662081  0.6506808066999483
  0.1108658439947117  0.5550653546560845  0.3483654878046509
  0.2222223333333346  0.7777776666666654  0.4639048807745796
  0.1112346306577335  0.8887653693457308  0.5370666390158970
  0.2222223333333346  0.7777776666666654  0.6525482244156121
  0.1108658439944804  0.8891341560052882  0.3483654878046509
  0.5552525784793597  0.1114583676097795  0.4640747550205661
  0.4465115143114660  0.2263566952895931  0.5359126597609636
  0.5523913049285223  0.1161776057741720  0.6506808066999483
  0.4437621208503328  0.2208579083673269  0.3463616729398045
  0.5555556666666632  0.4444443333333368  0.4618921978845319
  0.4465115143302470  0.5534884856885339  0.5359126597609636
  0.4437621208504818  0.5562378791496672  0.3463616729398045
  0.5552525784780387  0.7771272108678307  0.4640747550205661
  0.4441970720213360  0.8887653693457308  0.5370666390158970
  0.5523913049316688  0.7695466991596234  0.6506808066999483
  0.4449346453441468  0.8891341560052882  0.3483654878046509
  0.8888889999999989  0.1111110000000011  0.4640606979322703
  0.7771732191932774  0.2228267808063784  0.5366038573268387
  0.8888889999999989  0.1111110000000011  0.6507850769101090
  0.7777433917618652  0.2222566082385215  0.3475814444989635
  0.8885416323915414  0.4447474215223933  0.4640747550205661
  0.7736433046916261  0.5534884856885339  0.5359126597609636
  0.8838223942226813  0.4476086950662081  0.6506808066999483
  0.7791420916325241  0.5562378791496672  0.3463616729398045
  0.8885416323897886  0.7771272108678307  0.4640747550205661
  0.7771732191936214  0.8876801050539117  0.5366038573268387
  0.8838223942279508  0.7695466991596234  0.6506808066999483
  0.7777433917614786  0.8888204501896255  0.3475814444989635
 
  0.00000000E+00  0.00000000E+00  0.00000000E+00
  0.00000000E+00  0.00000000E+00  0.00000000E+00
  0.00000000E+00  0.00000000E+00  0.00000000E+00
  0.00000000E+00  0.00000000E+00  0.00000000E+00
  0.00000000E+00  0.00000000E+00  0.00000000E+00
  0.00000000E+00  0.00000000E+00  0.00000000E+00
  0.00000000E+00  0.00000000E+00  0.00000000E+00
  0.00000000E+00  0.00000000E+00  0.00000000E+00
  0.00000000E+00  0.00000000E+00  0.00000000E+00
  0.00000000E+00  0.00000000E+00  0.00000000E+00
  0.00000000E+00  0.00000000E+00  0.00000000E+00
  0.00000000E+00  0.00000000E+00  0.00000000E+00
  0.00000000E+00  0.00000000E+00  0.00000000E+00
  0.00000000E+00  0.00000000E+00  0.00000000E+00
  0.00000000E+00  0.00000000E+00  0.00000000E+00
  0.00000000E+00  0.00000000E+00  0.00000000E+00
  0.00000000E+00  0.00000000E+00  0.00000000E+00
  0.00000000E+00  0.00000000E+00  0.00000000E+00
  0.00000000E+00  0.00000000E+00  0.00000000E+00
  0.00000000E+00  0.00000000E+00  0.00000000E+00
  0.00000000E+00  0.00000000E+00  0.00000000E+00
  0.00000000E+00  0.00000000E+00  0.00000000E+00
  0.00000000E+00  0.00000000E+00  0.00000000E+00
  0.00000000E+00  0.00000000E+00  0.00000000E+00
  0.00000000E+00  0.00000000E+00  0.00000000E+00
  0.00000000E+00  0.00000000E+00  0.00000000E+00
  0.00000000E+00  0.00000000E+00  0.00000000E+00
  0.00000000E+00  0.00000000E+00  0.00000000E+00
  0.00000000E+00  0.00000000E+00  0.00000000E+00
  0.00000000E+00  0.00000000E+00  0.00000000E+00
  0.00000000E+00  0.00000000E+00  0.00000000E+00
  0.00000000E+00  0.00000000E+00  0.00000000E+00
  0.00000000E+00  0.00000000E+00  0.00000000E+00
  0.00000000E+00  0.00000000E+00  0.00000000E+00
  0.00000000E+00  0.00000000E+00  0.00000000E+00
  0.00000000E+00  0.00000000E+00  0.00000000E+00
  0.00000000E+00  0.00000000E+00  0.00000000E+00
  0.00000000E+00  0.00000000E+00  0.00000000E+00
  0.00000000E+00  0.00000000E+00  0.00000000E+00
  0.00000000E+00  0.00000000E+00  0.00000000E+00
  0.00000000E+00  0.00000000E+00  0.00000000E+00
  0.00000000E+00  0.00000000E+00  0.00000000E+00
  0.00000000E+00  0.00000000E+00  0.00000000E+00
  0.00000000E+00  0.00000000E+00  0.00000000E+00
  0.00000000E+00  0.00000000E+00  0.00000000E+00
  0.00000000E+00  0.00000000E+00  0.00000000E+00
  0.00000000E+00  0.00000000E+00  0.00000000E+00
  0.00000000E+00  0.00000000E+00  0.00000000E+00
  0.00000000E+00  0.00000000E+00  0.00000000E+00
  0.00000000E+00  0.00000000E+00  0.00000000E+00
  0.00000000E+00  0.00000000E+00  0.00000000E+00
  0.00000000E+00  0.00000000E+00  0.00000000E+00
  0.00000000E+00  0.00000000E+00  0.00000000E+00
  0.00000000E+00  0.00000000E+00  0.00000000E+00
  0.00000000E+00  0.00000000E+00  0.00000000E+00
  0.00000000E+00  0.00000000E+00  0.00000000E+00
  0.00000000E+00  0.00000000E+00  0.00000000E+00
  0.00000000E+00  0.00000000E+00  0.00000000E+00
  0.00000000E+00  0.00000000E+00  0.00000000E+00
  0.00000000E+00  0.00000000E+00  0.00000000E+00
  0.00000000E+00  0.00000000E+00  0.00000000E+00
  0.00000000E+00  0.00000000E+00  0.00000000E+00
