Ga Co  S 
 1.0000000000000000
    10.6134278676206701    0.0000000000000000    0.0000000000000000
    -5.3067139338103351    9.1915004091301640    0.0000000000000000
     0.0000000000000000    0.0000000000000000   28.8685630000000018
 Ga  Co  S  
  18   9  35
Cartesian
 -0.0000017689046398  2.0425566677512048 17.7306215164397507
  1.7689064135080974  1.0212768019588718 11.1379414835602528
 -1.7689064135080599  5.1063901374612160 17.7306215164397507
  0.0000017689046397  4.0851102716689480 11.1379414835602528
 -3.5378110581115174  8.1702236071712928 17.7306215164397507
 -1.7689028756987799  7.1489437413789592 11.1379414835602528
  3.5378075203022759  2.0425566677512048 17.7306215164397507
  5.3067157027149374  1.0212768019588718 11.1379414835602528
  1.7689028756988558  5.1063901374612160 17.7306215164397507
  3.5378110581114797  4.0851102716689480 11.1379414835602528
 -0.0000017689046017  8.1702236071712928 17.7306215164397507
  1.7689064135080601  7.1489437413789592 11.1379414835602528
  7.0756168095091150  2.0425566677512048 17.7306215164397507
  8.8445249919218529  1.0212768019588718 11.1379414835602528
  5.3067121649056954  5.1063901374612160 17.7306215164397507
  7.0756203473183943  4.0851102716689480 11.1379414835602528
  3.5378075203022377  8.1702236071712928 17.7306215164397507
  5.3067157027149747  7.1489437413789592 11.1379414835602528
  0.0000000000000000  0.0000000000000000 14.4342815000000009
 -1.7689046446034575  3.0638334697100764 14.4342815000000009
 -3.5378092892068773  6.1276669394200871 14.4342815000000009
  3.5378092892069151  0.0000000000000000 14.4342815000000009
  1.7689046446034575  3.0638334697100764 14.4342815000000009
  0.0000000000000376  6.1276669394200871 14.4342815000000009
  7.0756185784137546  0.0000000000000000 14.4342815000000009
  5.3067139338102969  3.0638334697100764 14.4342815000000009
  3.5378092892068773  6.1276669394200871 14.4342815000000009
  1.7689064135080974  1.0212768019588718 13.3873228329608693
 -0.0000017689046398  2.0425566677512048 15.4812401670391306
  1.7689064135080974  1.0212768019588718 18.8281567306748059
 -0.0000017689046398  2.0425566677512048 10.0404062693251905
  0.0000017689046397  4.0851102716689480 13.3873228329608693
 -1.7689064135080599  5.1063901374612160 15.4812401670391306
  0.0000017689046397  4.0851102716689480 18.8281567306748059
 -1.7689064135080599  5.1063901374612160 10.0404062693251905
 -1.7689028756987799  7.1489437413789592 13.3873228329608693
 -3.5378110581115174  8.1702236071712928 15.4812401670391306
 -1.7689028756987799  7.1489437413789592 18.8281567306748059
 -3.5378110581115174  8.1702236071712928 10.0404062693251905
  5.3067157027149374  1.0212768019588718 13.3873228329608693
  3.5378075203022759  2.0425566677512048 15.4812401670391306
  5.3067157027149374  1.0212768019588718 18.8281567306748059
  3.5378075203022759  2.0425566677512048 10.0404062693251905
  3.5378110581114797  4.0851102716689480 13.3873228329608693
  1.7689028756988558  5.1063901374612160 15.4812401670391306
  1.7689028756988558  5.1063901374612160 10.0404062693251905
  1.7689064135080601  7.1489437413789592 13.3873228329608693
 -0.0000017689046017  8.1702236071712928 15.4812401670391306
  1.7689064135080601  7.1489437413789592 18.8281567306748059
 -0.0000017689046017  8.1702236071712928 10.0404062693251905
  8.8445249919218529  1.0212768019588718 13.3873228329608693
  7.0756168095091150  2.0425566677512048 15.4812401670391306
  8.8445249919218529  1.0212768019588718 18.8281567306748059
  7.0756168095091150  2.0425566677512048 10.0404062693251905
  7.0756203473183943  4.0851102716689480 13.3873228329608693
  5.3067121649056954  5.1063901374612160 15.4812401670391306
  7.0756203473183943  4.0851102716689480 18.8281567306748059
  5.3067121649056954  5.1063901374612160 10.0404062693251905
  5.3067157027149747  7.1489437413789592 13.3873228329608693
  3.5378075203022377  8.1702236071712928 15.4812401670391306
  5.3067157027149747  7.1489437413789592 18.8281567306748059
  3.5378075203022377  8.1702236071712928 10.0404062693251905
