Ga Co  S Ti                             
   1.0000000000000000     
    10.5870761665872024   -0.0000000001507261   -0.0000000000000000
    -5.2935380335482760    9.1686791124231561    0.0000000000000000
     0.0000000000000000   -0.0000000000000000   29.8074093384878296
   Ga   Co   S    Ti
    18     9    35     1
Direct
  0.1704159118071908  0.2796525382844059  0.5924032126408680
  0.2789572032108383  0.1682577687970209  0.3697174839621817
  0.1654684947193631  0.6087151550782476  0.5923791848418696
  0.2789572023142065  0.4995879326580893  0.3697174839621817
  0.1654684938242913  0.9456425062908557  0.5923791848418696
  0.2777778329655831  0.8333331669977753  0.3707731070488441
  0.5189387935017249  0.3156557525524807  0.5896809505011990
  0.6115230677501354  0.1682577687970141  0.3697174839621817
  0.5189387925830815  0.5921722070573797  0.5896809505011990
  0.6111111661783042  0.4999998333333338  0.3678819937164625
  0.5023958436864299  0.9456425062908879  0.5923791848418696
  0.6115230659569179  0.8321537985449057  0.3697174839621817
  0.8314584609276022  0.2796525382843670  0.5924032126408680
  0.9444444993910253  0.1666664996688922  0.3706460692980789
  0.7954552457834484  0.5921722070568054  0.5896809505011990
  0.9428532293671497  0.4995879326580744  0.3697174839621817
  0.8314584591334474  0.9406950900978931  0.5924032126408680
  0.9428532284705708  0.8321537985448976  0.3697174839621817
  0.0558206645031487  0.0552903374565306  0.4809021722216193
  0.0558206636072999  0.3894191574269599  0.4809021722216193
  0.0558939242775683  0.7223913787217522  0.4801064873160428
  0.3887196228836703  0.0552170758898317  0.4801064873160428
  0.3902589748267109  0.3895739037257714  0.4790440469719161
  0.3887196210911348  0.7223913787217497  0.4801064873160428
  0.7216918428308745  0.0552903374565186  0.4809021722216193
  0.7215370956358882  0.3895739037257562  0.4790440469719161
  0.7215370947389740  0.7208520258818061  0.4790440469719161
  0.2772529662544746  0.1668481448517476  0.4452378344021858
  0.1684398579788769  0.2786645113697045  0.5163605297513203
  0.2849251967309570  0.1705792819549518  0.6265420254454508
  0.1659139999243604  0.2774015823422417  0.3328911854174929
  0.2772529653578956  0.4992933196469183  0.4452378344021858
  0.1663570313059002  0.6104922282512942  0.5162265678490916
  0.2849251958350214  0.5032344130207151  0.6265420254454508
  0.1669455461478489  0.6116692579351849  0.3338513452161447
  0.2777778329655831  0.8333331669977753  0.4463375048198613
  0.1663570304097473  0.9447539697043463  0.5162265678490916
  0.2777778329655831  0.8333331669977753  0.6273868651125716
  0.1669455452514377  0.9441654548624041  0.3338513452161447
  0.6118176807612247  0.1668481448517430  0.4452378344021858
  0.4998425110941149  0.2774631877378866  0.5139816686439029
  0.6078765873879296  0.1705792819549337  0.6265420254454508
  0.4994212520219731  0.2766206695935516  0.3316945169645709
  0.6111111661783042  0.4999998333333338  0.4433650469409339
  0.4998425101997929  0.6112684894643643  0.5139816686439029
  0.4994212511256443  0.6116897485365571  0.3316945169645709
  0.6118176789681403  0.8338580355013475  0.4452378344021858
  0.5006187705144366  0.9447539697043507  0.5162265678490916
  0.6078765855949705  0.8261858050243426  0.6265420254454508
  0.4994417408307978  0.9441654548624018  0.3338513452161447
  0.9444444993910253  0.1666664996688922  0.4461679986219343
  0.8324464878412148  0.2786645113696935  0.5163605297513203
  0.9444444993910253  0.1666664996688922  0.6266010111775244
  0.8337094168682682  0.2774015823422410  0.3328911854174929
  0.9442628533122903  0.4992933196469065  0.4452378344021858
  0.8336478105743471  0.6112684894644155  0.5139816686439029
  0.9405317162089781  0.5032344130207069  0.6265420254454508
  0.8344903287206373  0.6116897485365572  0.3316945169645709
  0.9442628524157924  0.8338580355013404  0.4452378344021858
  0.8324464860481486  0.9426711439272684  0.5163605297513203
  0.9405317153119617  0.8261858050243525  0.6265420254454508
  0.8337094150756122  0.9451970019821835  0.3328911854174929
  0.6111109439560849  0.5000000555555530  0.6507848698690595

  0.00000000E+00  0.00000000E+00  0.00000000E+00
  0.00000000E+00  0.00000000E+00  0.00000000E+00
  0.00000000E+00  0.00000000E+00  0.00000000E+00
  0.00000000E+00  0.00000000E+00  0.00000000E+00
  0.00000000E+00  0.00000000E+00  0.00000000E+00
  0.00000000E+00  0.00000000E+00  0.00000000E+00
  0.00000000E+00  0.00000000E+00  0.00000000E+00
  0.00000000E+00  0.00000000E+00  0.00000000E+00
  0.00000000E+00  0.00000000E+00  0.00000000E+00
  0.00000000E+00  0.00000000E+00  0.00000000E+00
  0.00000000E+00  0.00000000E+00  0.00000000E+00
  0.00000000E+00  0.00000000E+00  0.00000000E+00
  0.00000000E+00  0.00000000E+00  0.00000000E+00
  0.00000000E+00  0.00000000E+00  0.00000000E+00
  0.00000000E+00  0.00000000E+00  0.00000000E+00
  0.00000000E+00  0.00000000E+00  0.00000000E+00
  0.00000000E+00  0.00000000E+00  0.00000000E+00
  0.00000000E+00  0.00000000E+00  0.00000000E+00
  0.00000000E+00  0.00000000E+00  0.00000000E+00
  0.00000000E+00  0.00000000E+00  0.00000000E+00
  0.00000000E+00  0.00000000E+00  0.00000000E+00
  0.00000000E+00  0.00000000E+00  0.00000000E+00
  0.00000000E+00  0.00000000E+00  0.00000000E+00
  0.00000000E+00  0.00000000E+00  0.00000000E+00
  0.00000000E+00  0.00000000E+00  0.00000000E+00
  0.00000000E+00  0.00000000E+00  0.00000000E+00
  0.00000000E+00  0.00000000E+00  0.00000000E+00
  0.00000000E+00  0.00000000E+00  0.00000000E+00
  0.00000000E+00  0.00000000E+00  0.00000000E+00
  0.00000000E+00  0.00000000E+00  0.00000000E+00
  0.00000000E+00  0.00000000E+00  0.00000000E+00
  0.00000000E+00  0.00000000E+00  0.00000000E+00
  0.00000000E+00  0.00000000E+00  0.00000000E+00
  0.00000000E+00  0.00000000E+00  0.00000000E+00
  0.00000000E+00  0.00000000E+00  0.00000000E+00
  0.00000000E+00  0.00000000E+00  0.00000000E+00
  0.00000000E+00  0.00000000E+00  0.00000000E+00
  0.00000000E+00  0.00000000E+00  0.00000000E+00
  0.00000000E+00  0.00000000E+00  0.00000000E+00
  0.00000000E+00  0.00000000E+00  0.00000000E+00
  0.00000000E+00  0.00000000E+00  0.00000000E+00
  0.00000000E+00  0.00000000E+00  0.00000000E+00
  0.00000000E+00  0.00000000E+00  0.00000000E+00
  0.00000000E+00  0.00000000E+00  0.00000000E+00
  0.00000000E+00  0.00000000E+00  0.00000000E+00
  0.00000000E+00  0.00000000E+00  0.00000000E+00
  0.00000000E+00  0.00000000E+00  0.00000000E+00
  0.00000000E+00  0.00000000E+00  0.00000000E+00
  0.00000000E+00  0.00000000E+00  0.00000000E+00
  0.00000000E+00  0.00000000E+00  0.00000000E+00
  0.00000000E+00  0.00000000E+00  0.00000000E+00
  0.00000000E+00  0.00000000E+00  0.00000000E+00
  0.00000000E+00  0.00000000E+00  0.00000000E+00
  0.00000000E+00  0.00000000E+00  0.00000000E+00
  0.00000000E+00  0.00000000E+00  0.00000000E+00
  0.00000000E+00  0.00000000E+00  0.00000000E+00
  0.00000000E+00  0.00000000E+00  0.00000000E+00
  0.00000000E+00  0.00000000E+00  0.00000000E+00
  0.00000000E+00  0.00000000E+00  0.00000000E+00
  0.00000000E+00  0.00000000E+00  0.00000000E+00
  0.00000000E+00  0.00000000E+00  0.00000000E+00
  0.00000000E+00  0.00000000E+00  0.00000000E+00
  0.00000000E+00  0.00000000E+00  0.00000000E+00
