Ga2 Co1 S4                              
   1.00000000000000     
     3.5601451664690580    0.0000000000000000    0.0000000000000000
    -1.7800725832345292    3.0831769212979130    0.0000000000000000
     0.0000000000000000    0.0000000000000000   28.8685630000000018
   Ga   Co   S 
     2     1     4
Direct
  0.3333330000000032  0.6666669999999968  0.6148452690872830
  0.6666669999999968  0.3333330000000032  0.3851547309127170
  0.0000000000000000  0.0000000000000000  0.5000000000000000
  0.6666669999999968  0.3333330000000032  0.4635904609231005
  0.3333330000000032  0.6666669999999968  0.5364095390768995
  0.6666669999999968  0.3333330000000032  0.6526044359140499
  0.3333330000000032  0.6666669999999968  0.3473955640859501
 
  0.00000000E+00  0.00000000E+00  0.00000000E+00
  0.00000000E+00  0.00000000E+00  0.00000000E+00
  0.00000000E+00  0.00000000E+00  0.00000000E+00
  0.00000000E+00  0.00000000E+00  0.00000000E+00
  0.00000000E+00  0.00000000E+00  0.00000000E+00
  0.00000000E+00  0.00000000E+00  0.00000000E+00
  0.00000000E+00  0.00000000E+00  0.00000000E+00
