0.040   9   9   1   12  0.060   44    3    9   19   16           # Parameters to Generate KPOINTS (Do NOT Edit This Line)
    56
Reciprocal lattice
    0.00000000000000    0.00000000000000    0.00000000000000     1
    0.11111111111111    0.00000000000000    0.00000000000000     6
    0.22222222222222    0.00000000000000    0.00000000000000     6
    0.33333333333333    0.00000000000000    0.00000000000000     6
    0.44444444444444    0.00000000000000    0.00000000000000     6
    0.11111111111111    0.11111111111111    0.00000000000000     6
    0.22222222222222    0.11111111111111    0.00000000000000    12
    0.33333333333333    0.11111111111111    0.00000000000000    12
    0.44444444444444    0.11111111111111    0.00000000000000     6
    0.22222222222222    0.22222222222222    0.00000000000000     6
    0.33333333333333    0.22222222222222    0.00000000000000    12
    0.33333333333333    0.33333333333333    0.00000000000000     2
    0.50000000000000    0.00000000000000    0.00000000000000     0
    0.47916666666250    0.04166666666250    0.00000000000000     0
    0.45833333332500    0.08333333332500    0.00000000000000     0
    0.43749999998750    0.12499999998750    0.00000000000000     0
    0.41666666665000    0.16666666665000    0.00000000000000     0
    0.39583333331250    0.20833333331250    0.00000000000000     0
    0.37499999997500    0.24999999997500    0.00000000000000     0
    0.35416666663750    0.29166666663750    0.00000000000000     0
    0.33333333330000    0.33333333330000    0.00000000000000     0
    0.33333333330000    0.33333333330000    0.00000000000000     0
    0.31481481478333    0.31481481478333    0.00000000000000     0
    0.29629629626667    0.29629629626667    0.00000000000000     0
    0.27777777775000    0.27777777775000    0.00000000000000     0
    0.25925925923333    0.25925925923333    0.00000000000000     0
    0.24074074071667    0.24074074071667    0.00000000000000     0
    0.22222222220000    0.22222222220000    0.00000000000000     0
    0.20370370368333    0.20370370368333    0.00000000000000     0
    0.18518518516667    0.18518518516667    0.00000000000000     0
    0.16666666665000    0.16666666665000    0.00000000000000     0
    0.14814814813333    0.14814814813333    0.00000000000000     0
    0.12962962961667    0.12962962961667    0.00000000000000     0
    0.11111111110000    0.11111111110000    0.00000000000000     0
    0.09259259258333    0.09259259258333    0.00000000000000     0
    0.07407407406667    0.07407407406667    0.00000000000000     0
    0.05555555555000    0.05555555555000    0.00000000000000     0
    0.03703703703333    0.03703703703333    0.00000000000000     0
    0.01851851851667    0.01851851851667    0.00000000000000     0
    0.00000000000000    0.00000000000000    0.00000000000000     0
    0.00000000000000    0.00000000000000    0.00000000000000     0
    0.03333333333333    0.00000000000000    0.00000000000000     0
    0.06666666666667    0.00000000000000    0.00000000000000     0
    0.10000000000000    0.00000000000000    0.00000000000000     0
    0.13333333333333    0.00000000000000    0.00000000000000     0
    0.16666666666667    0.00000000000000    0.00000000000000     0
    0.20000000000000    0.00000000000000    0.00000000000000     0
    0.23333333333333    0.00000000000000    0.00000000000000     0
    0.26666666666667    0.00000000000000    0.00000000000000     0
    0.30000000000000    0.00000000000000    0.00000000000000     0
    0.33333333333333    0.00000000000000    0.00000000000000     0
    0.36666666666667    0.00000000000000    0.00000000000000     0
    0.40000000000000    0.00000000000000    0.00000000000000     0
    0.43333333333333    0.00000000000000    0.00000000000000     0
    0.46666666666667    0.00000000000000    0.00000000000000     0
    0.50000000000000    0.00000000000000    0.00000000000000     0
