Ga Co  S Co  H                          
   1.0000000000000000     
    10.5837846391776029   -0.0000000002541297    0.0000000000000000
    -5.2918922699485371    9.1658285574906060    0.0000000000000000
    -0.0000000000000000    0.0000000000000000   29.4251036973321014
   Ga   Co   S    Co   H 
    18     9    35     1     1
Direct
  0.1693922157946109  0.2791406902802103  0.5940131775229858
  0.2784817397876402  0.1675432940146651  0.3689197651705055
  0.1656565867984063  0.6090913392362797  0.5933565081866552
  0.2784817388898918  0.4998269440191688  0.3689197651705055
  0.1656565859012234  0.9454544142118666  0.5933565081866552
  0.2777778329655831  0.8333331669977753  0.3687292590424009
  0.5161826115637433  0.3101433886731292  0.5940572261677761
  0.6112840563910065  0.1675432940146090  0.3689197651705055
  0.5161826105132229  0.5949283889987503  0.5940572261677761
  0.6111111661783042  0.4999998333333338  0.3684889713232939
  0.5020196595304549  0.9454544142118446  0.5933565081866552
  0.6112840545947505  0.8326292619662605  0.3689197651705055
  0.8319703089359863  0.2791406902800636  0.5940131775229858
  0.9444444993910253  0.1666664996688922  0.3692036868661471
  0.8009676097912884  0.5949283889947869  0.5940572261677761
  0.9435677041525146  0.4998269440190755  0.3689197651705055
  0.8319703071376432  0.9417187861063924  0.5940131775229858
  0.9435677032540145  0.8326292619662238  0.3689197651705055
  0.0558396941329453  0.0552713078256967  0.4812086252576870
  0.0558396932381612  0.3894572166886552  0.4812086252576870
  0.0553930042730451  0.7221409187124701  0.4805650539699645
  0.3889700828929528  0.0557179959080355  0.4805650539699645
  0.3905529237658015  0.3897208781924053  0.4808198182073578
  0.3889700810863756  0.7221409187128284  0.4805650539699645
  0.7216537835702161  0.0552713078256574  0.4812086252576870
  0.7213901211634313  0.3897208781925396  0.4808198182073578
  0.7213901202723403  0.7205580769483889  0.4808198182073578
  0.2781586952658915  0.1673042922016706  0.4454912110080183
  0.1672823519525117  0.2780857583551588  0.5168803478811356
  0.2824568903039723  0.1689298021522433  0.6282407885445735
  0.1665344463988900  0.2777118055796604  0.3315114561137809
  0.2781586943704782  0.4997429013128846  0.4454912110080183
  0.1671044222797376  0.6119870101991089  0.5163297566469334
  0.2824568894122270  0.5024155863729338  0.6282407885445735
  0.1664755589736392  0.6107292835867485  0.3318476834775933
  0.2777778329655831  0.8333331669977753  0.4450285221440179
  0.1671044213890482  0.9440065787303681  0.5163297566469334
  0.2777778329655831  0.8333331669977753  0.6288080304513363
  0.1664755580765742  0.9446354420366311  0.3318476834775933
  0.6113680990997009  0.1673042922015508  0.4454912110080183
  0.4992588844699895  0.2762959344902200  0.5163142561411926
  0.6086954140120983  0.1689298021528296  0.6282407885445735
  0.4999546265675205  0.2776874186846512  0.3310798535590478
  0.6111111661783042  0.4999998333333338  0.4451834105345492
  0.4992588835983874  0.6118521160879051  0.5163142561411926
  0.4999546256713847  0.6111563739910051  0.3310798535590478
  0.6113680973033098  0.8329523064855426  0.4454912110080183
  0.4991239885612985  0.9440065787305131  0.5163297566469334
  0.6086954122468343  0.8286541114741207  0.6282407885445735
  0.5003817151798708  0.9446354420366116  0.3318476834775933
  0.9444444993910253  0.1666664996688922  0.4456925992922953
  0.8330252408530342  0.2780857583552179  0.5168803478811356
  0.9444444993910253  0.1666664996688922  0.6288578781819487
  0.8333991936311582  0.2777118055796519  0.3315114561137809
  0.9438067059657045  0.4997429013127880  0.4454912110080183
  0.8348150637998777  0.6118521160885404  0.5163142561411926
  0.9421811959840989  0.5024155863736370  0.6282407885445735
  0.8334235796293494  0.6111563739910096  0.3310798535590478
  0.9438067050647336  0.8329523064855660  0.4454912110080183
  0.8330252390626941  0.9438286499562893  0.5168803478811356
  0.9421811951105876  0.8286541114742381  0.6282407885445735
  0.8333991918381928  0.9445765555073541  0.3315114561137809
  0.6111109439560849  0.5000000555555530  0.6406995176004073
  0.6111109439560849  0.5000000555555530  0.6934439687528924

  0.00000000E+00  0.00000000E+00  0.00000000E+00
  0.00000000E+00  0.00000000E+00  0.00000000E+00
  0.00000000E+00  0.00000000E+00  0.00000000E+00
  0.00000000E+00  0.00000000E+00  0.00000000E+00
  0.00000000E+00  0.00000000E+00  0.00000000E+00
  0.00000000E+00  0.00000000E+00  0.00000000E+00
  0.00000000E+00  0.00000000E+00  0.00000000E+00
  0.00000000E+00  0.00000000E+00  0.00000000E+00
  0.00000000E+00  0.00000000E+00  0.00000000E+00
  0.00000000E+00  0.00000000E+00  0.00000000E+00
  0.00000000E+00  0.00000000E+00  0.00000000E+00
  0.00000000E+00  0.00000000E+00  0.00000000E+00
  0.00000000E+00  0.00000000E+00  0.00000000E+00
  0.00000000E+00  0.00000000E+00  0.00000000E+00
  0.00000000E+00  0.00000000E+00  0.00000000E+00
  0.00000000E+00  0.00000000E+00  0.00000000E+00
  0.00000000E+00  0.00000000E+00  0.00000000E+00
  0.00000000E+00  0.00000000E+00  0.00000000E+00
  0.00000000E+00  0.00000000E+00  0.00000000E+00
  0.00000000E+00  0.00000000E+00  0.00000000E+00
  0.00000000E+00  0.00000000E+00  0.00000000E+00
  0.00000000E+00  0.00000000E+00  0.00000000E+00
  0.00000000E+00  0.00000000E+00  0.00000000E+00
  0.00000000E+00  0.00000000E+00  0.00000000E+00
  0.00000000E+00  0.00000000E+00  0.00000000E+00
  0.00000000E+00  0.00000000E+00  0.00000000E+00
  0.00000000E+00  0.00000000E+00  0.00000000E+00
  0.00000000E+00  0.00000000E+00  0.00000000E+00
  0.00000000E+00  0.00000000E+00  0.00000000E+00
  0.00000000E+00  0.00000000E+00  0.00000000E+00
  0.00000000E+00  0.00000000E+00  0.00000000E+00
  0.00000000E+00  0.00000000E+00  0.00000000E+00
  0.00000000E+00  0.00000000E+00  0.00000000E+00
  0.00000000E+00  0.00000000E+00  0.00000000E+00
  0.00000000E+00  0.00000000E+00  0.00000000E+00
  0.00000000E+00  0.00000000E+00  0.00000000E+00
  0.00000000E+00  0.00000000E+00  0.00000000E+00
  0.00000000E+00  0.00000000E+00  0.00000000E+00
  0.00000000E+00  0.00000000E+00  0.00000000E+00
  0.00000000E+00  0.00000000E+00  0.00000000E+00
  0.00000000E+00  0.00000000E+00  0.00000000E+00
  0.00000000E+00  0.00000000E+00  0.00000000E+00
  0.00000000E+00  0.00000000E+00  0.00000000E+00
  0.00000000E+00  0.00000000E+00  0.00000000E+00
  0.00000000E+00  0.00000000E+00  0.00000000E+00
  0.00000000E+00  0.00000000E+00  0.00000000E+00
  0.00000000E+00  0.00000000E+00  0.00000000E+00
  0.00000000E+00  0.00000000E+00  0.00000000E+00
  0.00000000E+00  0.00000000E+00  0.00000000E+00
  0.00000000E+00  0.00000000E+00  0.00000000E+00
  0.00000000E+00  0.00000000E+00  0.00000000E+00
  0.00000000E+00  0.00000000E+00  0.00000000E+00
  0.00000000E+00  0.00000000E+00  0.00000000E+00
  0.00000000E+00  0.00000000E+00  0.00000000E+00
  0.00000000E+00  0.00000000E+00  0.00000000E+00
  0.00000000E+00  0.00000000E+00  0.00000000E+00
  0.00000000E+00  0.00000000E+00  0.00000000E+00
  0.00000000E+00  0.00000000E+00  0.00000000E+00
  0.00000000E+00  0.00000000E+00  0.00000000E+00
  0.00000000E+00  0.00000000E+00  0.00000000E+00
  0.00000000E+00  0.00000000E+00  0.00000000E+00
  0.00000000E+00  0.00000000E+00  0.00000000E+00
  0.00000000E+00  0.00000000E+00  0.00000000E+00
  0.00000000E+00  0.00000000E+00  0.00000000E+00
