SYSTEM = Ga2CoS4
ISMEAR = -5
LASPH = T
ENCUT = 600
PREC = Accurate
ADDGRID = .TRUE.
LREAL = F
EDIFF = 1E-9
IBRION = 8
LEPSILON = .TRUE.
