Ga2 Co1 S4
1.0
3.641286 0.000000 0.000000
-1.820643 3.153447 0.000000
0.000000 0.000000 28.868563
Ga Co S
2 1 4
direct
0.333333 0.666667 0.617405 Ga
0.666667 0.333333 0.382595 Ga
0.000000 0.000000 0.500000 Co
0.666667 0.333333 0.459434 S
0.333333 0.666667 0.540566 S
0.666667 0.333333 0.653661 S
0.333333 0.666667 0.346339 S
