Ga Co  S Ni                             
   1.0000000000000000     
    10.5904685890393271   -0.0000000001317523    0.0000000000000000
    -5.2952342447419269    9.1716170386037366   -0.0000000000000000
     0.0000000000000000    0.0000000000000000   29.7191115890327850
   Ga   Co   S    Ni
    18     9    35     1
Direct
  0.1685049434120659  0.2786970540867454  0.5922604194988862
  0.2785813973464368  0.1675992406919342  0.3697056720558358
  0.1662234635116533  0.6102250926628292  0.5919407730326322
  0.2785813964499801  0.4998706548987118  0.3697056720558358
  0.1662234626166170  0.9448875374985642  0.5919407730326322
  0.2777778329655831  0.8333331669977753  0.3696532322215888
  0.5121761489667840  0.3021304634828708  0.5915973445070324
  0.6112403455094458  0.1675992406919291  0.3697056720558358
  0.5121761480586899  0.5989348515920492  0.5915973445070324
  0.6111111661783042  0.4999998333333338  0.3682826763887372
  0.5008859061018140  0.9448875374985974  0.5919407730326322
  0.6112403437164663  0.8325296044093637  0.3697056720558358
  0.8324139451250665  0.2786970540867113  0.5922604194988862
  0.9444444993910253  0.1666664996688922  0.3699526612324631
  0.8089805348427807  0.5989348515917463  0.5915973445070324
  0.9435117574720024  0.4998706548987029  0.3697056720558358
  0.8324139433311081  0.9426060584932096  0.5922604194988862
  0.9435117565754866  0.8325296044093603  0.3697056720558358
  0.0555665237663900  0.0555444781940156  0.4808272054286477
  0.0555665228697958  0.3889108759519709  0.4808272054286477
  0.0548426799790492  0.7218657565726679  0.4807236909767215
  0.3892452450327546  0.0562683201880096  0.4807236909767215
  0.3901243969014968  0.3895066147632851  0.4798557384006405
  0.3892452432405695  0.7218657565726565  0.4807236909767215
  0.7222001243051371  0.0555444781940228  0.4808272054286477
  0.7216043845986158  0.3895066147632636  0.4798557384006405
  0.7216043837014605  0.7209866038067848  0.4798557384006405
  0.2780732677868954  0.1672911354915770  0.4454235940329966
  0.1672571766569775  0.2780731707087495  0.5162675370371745
  0.2817638603401148  0.1689037801691158  0.6274270544519126
  0.1664696861004229  0.2776794254303053  0.3327312197206619
  0.2780732668899922  0.4996706305408113  0.4454235940329966
  0.1666754573758395  0.6111290803911712  0.5160688842367736
  0.2817638594437825  0.5017485784167529  0.6274270544519126
  0.1664038405647090  0.6105858467689255  0.3330687678902066
  0.2777778329655831  0.8333331669977753  0.4448758849878615
  0.1666754564796247  0.9444355436344084  0.5160688842367736
  0.2777778329655831  0.8333331669977753  0.6280557911638179
  0.1664038396690876  0.9447071604455236  0.3330687678902066
  0.6114403698686414  0.1672911354915387  0.4454235940329966
  0.5012412754961673  0.2802607165418894  0.5153422071531801
  0.6093624219929458  0.1689037801690709  0.6274270544519126
  0.4995448925841553  0.2768679507179219  0.3319224464007985
  0.6111111661783042  0.4999998333333338  0.4439479614829602
  0.5012412745978718  0.6098697250624141  0.5153422071531801
  0.4995448916880656  0.6115661079743691  0.3319224464007985
  0.6114403680739314  0.8330377339676660  0.4454235940329966
  0.4999819183746201  0.9444355436344113  0.5160688842367736
  0.6093624201985459  0.8293471414141778  0.6274270544519126
  0.5005251519962879  0.9447071604455418  0.3330687678902066
  0.9444444993910253  0.1666664996688922  0.4456277657446593
  0.8330378285021596  0.2780731707087388  0.5162675370371745
  0.9444444993910253  0.1666664996688922  0.6278142146181821
  0.8334315737802697  0.2776794254303031  0.3327312197206619
  0.9438198626740786  0.4996706305407577  0.4454235940329966
  0.8308502817742155  0.6098697250623630  0.5153422071531801
  0.9422072179962446  0.5017485784167077  0.6274270544519126
  0.8342430475960340  0.6115661079743751  0.3319224464007985
  0.9438198617762789  0.8330377339676512  0.4454235940329966
  0.8330378267091038  0.9438538252491783  0.5162675370371745
  0.9422072170981843  0.8293471414141776  0.6274270544519126
  0.8334315719875480  0.9446413158060579  0.3327312197206619
  0.6111109439560849  0.5000000555555530  0.6361273205374812

  0.00000000E+00  0.00000000E+00  0.00000000E+00
  0.00000000E+00  0.00000000E+00  0.00000000E+00
  0.00000000E+00  0.00000000E+00  0.00000000E+00
  0.00000000E+00  0.00000000E+00  0.00000000E+00
  0.00000000E+00  0.00000000E+00  0.00000000E+00
  0.00000000E+00  0.00000000E+00  0.00000000E+00
  0.00000000E+00  0.00000000E+00  0.00000000E+00
  0.00000000E+00  0.00000000E+00  0.00000000E+00
  0.00000000E+00  0.00000000E+00  0.00000000E+00
  0.00000000E+00  0.00000000E+00  0.00000000E+00
  0.00000000E+00  0.00000000E+00  0.00000000E+00
  0.00000000E+00  0.00000000E+00  0.00000000E+00
  0.00000000E+00  0.00000000E+00  0.00000000E+00
  0.00000000E+00  0.00000000E+00  0.00000000E+00
  0.00000000E+00  0.00000000E+00  0.00000000E+00
  0.00000000E+00  0.00000000E+00  0.00000000E+00
  0.00000000E+00  0.00000000E+00  0.00000000E+00
  0.00000000E+00  0.00000000E+00  0.00000000E+00
  0.00000000E+00  0.00000000E+00  0.00000000E+00
  0.00000000E+00  0.00000000E+00  0.00000000E+00
  0.00000000E+00  0.00000000E+00  0.00000000E+00
  0.00000000E+00  0.00000000E+00  0.00000000E+00
  0.00000000E+00  0.00000000E+00  0.00000000E+00
  0.00000000E+00  0.00000000E+00  0.00000000E+00
  0.00000000E+00  0.00000000E+00  0.00000000E+00
  0.00000000E+00  0.00000000E+00  0.00000000E+00
  0.00000000E+00  0.00000000E+00  0.00000000E+00
  0.00000000E+00  0.00000000E+00  0.00000000E+00
  0.00000000E+00  0.00000000E+00  0.00000000E+00
  0.00000000E+00  0.00000000E+00  0.00000000E+00
  0.00000000E+00  0.00000000E+00  0.00000000E+00
  0.00000000E+00  0.00000000E+00  0.00000000E+00
  0.00000000E+00  0.00000000E+00  0.00000000E+00
  0.00000000E+00  0.00000000E+00  0.00000000E+00
  0.00000000E+00  0.00000000E+00  0.00000000E+00
  0.00000000E+00  0.00000000E+00  0.00000000E+00
  0.00000000E+00  0.00000000E+00  0.00000000E+00
  0.00000000E+00  0.00000000E+00  0.00000000E+00
  0.00000000E+00  0.00000000E+00  0.00000000E+00
  0.00000000E+00  0.00000000E+00  0.00000000E+00
  0.00000000E+00  0.00000000E+00  0.00000000E+00
  0.00000000E+00  0.00000000E+00  0.00000000E+00
  0.00000000E+00  0.00000000E+00  0.00000000E+00
  0.00000000E+00  0.00000000E+00  0.00000000E+00
  0.00000000E+00  0.00000000E+00  0.00000000E+00
  0.00000000E+00  0.00000000E+00  0.00000000E+00
  0.00000000E+00  0.00000000E+00  0.00000000E+00
  0.00000000E+00  0.00000000E+00  0.00000000E+00
  0.00000000E+00  0.00000000E+00  0.00000000E+00
  0.00000000E+00  0.00000000E+00  0.00000000E+00
  0.00000000E+00  0.00000000E+00  0.00000000E+00
  0.00000000E+00  0.00000000E+00  0.00000000E+00
  0.00000000E+00  0.00000000E+00  0.00000000E+00
  0.00000000E+00  0.00000000E+00  0.00000000E+00
  0.00000000E+00  0.00000000E+00  0.00000000E+00
  0.00000000E+00  0.00000000E+00  0.00000000E+00
  0.00000000E+00  0.00000000E+00  0.00000000E+00
  0.00000000E+00  0.00000000E+00  0.00000000E+00
  0.00000000E+00  0.00000000E+00  0.00000000E+00
  0.00000000E+00  0.00000000E+00  0.00000000E+00
  0.00000000E+00  0.00000000E+00  0.00000000E+00
  0.00000000E+00  0.00000000E+00  0.00000000E+00
  0.00000000E+00  0.00000000E+00  0.00000000E+00
