Ga Co  S Ni  H                          
   1.0000000000000000     
    10.5707173013892763   -0.0000000002531226   -0.0000000000000000
    -5.2853586011150577    9.1545119083529034    0.0000000000000000
     0.0000000000000000    0.0000000000000000   29.5297038026924987
   Ga   Co   S    Ni   H 
    18     9    35     1     1
Direct
  0.1690139528721929  0.2789515588163434  0.5934402041231266
  0.2787068741064300  0.1678157820588822  0.3691655923504930
  0.1659167410459333  0.6096116477313094  0.5931281462549527
  0.2787068732101520  0.4997795902911237  0.3691655923504930
  0.1659167401477974  0.9451942599643640  0.5931281462549527
  0.2777778329655831  0.8333331669977753  0.3694507822576215
  0.5153147664391912  0.3084076984291163  0.5930141258412412
  0.6113314101163959  0.1678157820588933  0.3691655923504930
  0.5153147655867653  0.5957962341182107  0.5930141258412412
  0.6111111661783042  0.4999998333333338  0.3682070290294857
  0.5014993510363535  0.9451942599643173  0.5931281462549527
  0.6113314083242281  0.8324041276499834  0.3691655923504930
  0.8321594403945377  0.2789515588163332  0.5934402041231266
  0.9444444993910253  0.1666664996688922  0.3694287009445319
  0.8027032998422983  0.5957962341193391  0.5930141258412412
  0.9432952161042476  0.4997795902911359  0.3691655923504930
  0.8321594386015099  0.9420970490339895  0.5934402041231266
  0.9432952152083649  0.8324041276499842  0.3691655923504930
  0.0555287160261449  0.0555822859360844  0.4811888022975471
  0.0555287151276788  0.3888352604677850  0.4811888022975471
  0.0554006493694240  0.7221447412669999  0.4809705475145226
  0.3889662603384231  0.0557103507993021  0.4809705475145226
  0.3903864540279505  0.3896376433258056  0.4803594556571870
  0.3889662585445266  0.7221447412670321  0.4809705475145226
  0.7222757397874991  0.0555822859361397  0.4811888022975471
  0.7214733560346820  0.3896376433258199  0.4803594556571870
  0.7214733551389406  0.7207245466817085  0.4803594556571870
  0.2777904211542367  0.1669818647087041  0.4453778934286527
  0.1675474196921674  0.2782182922271320  0.5167897751839534
  0.2832568715669506  0.1699633898650554  0.6283065774847086
  0.1664921729225787  0.2776906688411014  0.3317909922147370
  0.2777904202568710  0.4996970546932186  0.4453778934286527
  0.1664726121333962  0.6107233899062134  0.5165962125037529
  0.2832568706695215  0.5021819799543801  0.6283065774847086
  0.1666055409644338  0.6109892475684016  0.3324096484654818
  0.2777778329655831  0.8333331669977753  0.4454828145027127
  0.1664726112344288  0.9446383888769228  0.5165962125037529
  0.2777778329655831  0.8333331669977753  0.6290310829047540
  0.1666055400698526  0.9445054600457724  0.3324096484654818
  0.6114139457184392  0.1669818647086097  0.4453778934286527
  0.4998273198256996  0.2774328052005321  0.5158930386536081
  0.6089290204620780  0.1699633898648374  0.6283065774847086
  0.4997916717731567  0.2773615090959332  0.3311420779041166
  0.6111111661783042  0.4999998333333338  0.4445541172677957
  0.4998273189109893  0.6112836807333032  0.5158930386536081
  0.4997916708774021  0.6113193287853589  0.3311420779041166
  0.6114139439210731  0.8333205805981997  0.4453778934286527
  0.5003876088622591  0.9446383888768544  0.5165962125037529
  0.6089290186598505  0.8278541301808119  0.6283065774847086
  0.5001217511957978  0.9445054600458165  0.3324096484654818
  0.9444444993910253  0.1666664996688922  0.4456264619915393
  0.8328927069853516  0.2782182922270807  0.5167897751839534
  0.9444444993910253  0.1666664996688922  0.6287990827982585
  0.8334203303689101  0.2776906688411135  0.3317909922147370
  0.9441291334595950  0.4996970546930970  0.4453778934286527
  0.8336781931315660  0.6112836807328303  0.5158930386536081
  0.9411476083081045  0.5021819799541334  0.6283065774847086
  0.8337494892176960  0.6113193287853739  0.3311420779041166
  0.9441291325596025  0.8333205805981733  0.4453778934286527
  0.8328927051907209  0.9435635822124535  0.5167897751839534
  0.9411476074033132  0.8278541301807835  0.6283065774847086
  0.8334203285767522  0.9446188289844512  0.3317909922147370
  0.6111109439560849  0.5000000555555530  0.6417840194191889
  0.6111109439560849  0.5000000555555530  0.6943641713825088

  0.00000000E+00  0.00000000E+00  0.00000000E+00
  0.00000000E+00  0.00000000E+00  0.00000000E+00
  0.00000000E+00  0.00000000E+00  0.00000000E+00
  0.00000000E+00  0.00000000E+00  0.00000000E+00
  0.00000000E+00  0.00000000E+00  0.00000000E+00
  0.00000000E+00  0.00000000E+00  0.00000000E+00
  0.00000000E+00  0.00000000E+00  0.00000000E+00
  0.00000000E+00  0.00000000E+00  0.00000000E+00
  0.00000000E+00  0.00000000E+00  0.00000000E+00
  0.00000000E+00  0.00000000E+00  0.00000000E+00
  0.00000000E+00  0.00000000E+00  0.00000000E+00
  0.00000000E+00  0.00000000E+00  0.00000000E+00
  0.00000000E+00  0.00000000E+00  0.00000000E+00
  0.00000000E+00  0.00000000E+00  0.00000000E+00
  0.00000000E+00  0.00000000E+00  0.00000000E+00
  0.00000000E+00  0.00000000E+00  0.00000000E+00
  0.00000000E+00  0.00000000E+00  0.00000000E+00
  0.00000000E+00  0.00000000E+00  0.00000000E+00
  0.00000000E+00  0.00000000E+00  0.00000000E+00
  0.00000000E+00  0.00000000E+00  0.00000000E+00
  0.00000000E+00  0.00000000E+00  0.00000000E+00
  0.00000000E+00  0.00000000E+00  0.00000000E+00
  0.00000000E+00  0.00000000E+00  0.00000000E+00
  0.00000000E+00  0.00000000E+00  0.00000000E+00
  0.00000000E+00  0.00000000E+00  0.00000000E+00
  0.00000000E+00  0.00000000E+00  0.00000000E+00
  0.00000000E+00  0.00000000E+00  0.00000000E+00
  0.00000000E+00  0.00000000E+00  0.00000000E+00
  0.00000000E+00  0.00000000E+00  0.00000000E+00
  0.00000000E+00  0.00000000E+00  0.00000000E+00
  0.00000000E+00  0.00000000E+00  0.00000000E+00
  0.00000000E+00  0.00000000E+00  0.00000000E+00
  0.00000000E+00  0.00000000E+00  0.00000000E+00
  0.00000000E+00  0.00000000E+00  0.00000000E+00
  0.00000000E+00  0.00000000E+00  0.00000000E+00
  0.00000000E+00  0.00000000E+00  0.00000000E+00
  0.00000000E+00  0.00000000E+00  0.00000000E+00
  0.00000000E+00  0.00000000E+00  0.00000000E+00
  0.00000000E+00  0.00000000E+00  0.00000000E+00
  0.00000000E+00  0.00000000E+00  0.00000000E+00
  0.00000000E+00  0.00000000E+00  0.00000000E+00
  0.00000000E+00  0.00000000E+00  0.00000000E+00
  0.00000000E+00  0.00000000E+00  0.00000000E+00
  0.00000000E+00  0.00000000E+00  0.00000000E+00
  0.00000000E+00  0.00000000E+00  0.00000000E+00
  0.00000000E+00  0.00000000E+00  0.00000000E+00
  0.00000000E+00  0.00000000E+00  0.00000000E+00
  0.00000000E+00  0.00000000E+00  0.00000000E+00
  0.00000000E+00  0.00000000E+00  0.00000000E+00
  0.00000000E+00  0.00000000E+00  0.00000000E+00
  0.00000000E+00  0.00000000E+00  0.00000000E+00
  0.00000000E+00  0.00000000E+00  0.00000000E+00
  0.00000000E+00  0.00000000E+00  0.00000000E+00
  0.00000000E+00  0.00000000E+00  0.00000000E+00
  0.00000000E+00  0.00000000E+00  0.00000000E+00
  0.00000000E+00  0.00000000E+00  0.00000000E+00
  0.00000000E+00  0.00000000E+00  0.00000000E+00
  0.00000000E+00  0.00000000E+00  0.00000000E+00
  0.00000000E+00  0.00000000E+00  0.00000000E+00
  0.00000000E+00  0.00000000E+00  0.00000000E+00
  0.00000000E+00  0.00000000E+00  0.00000000E+00
  0.00000000E+00  0.00000000E+00  0.00000000E+00
  0.00000000E+00  0.00000000E+00  0.00000000E+00
  0.00000000E+00  0.00000000E+00  0.00000000E+00
