Ga Co  S Cu  H                          
   1.0000000000000000     
    10.5741328702061939   -0.0000000002526782    0.0000000000000000
    -5.2870663855070434    9.1574698784642212   -0.0000000000000000
     0.0000000000000000    0.0000000000000000   29.6120313140955922
   Ga   Co   S    Cu   H 
    18     9    35     1     1
Direct
  0.1692059369945410  0.2790475508788383  0.5930141846024570
  0.2790582446383109  0.1681699701596494  0.3694401701211912
  0.1661623361117091  0.6101028378628315  0.5927969175584207
  0.2790582437410277  0.4997767727237720  0.3694401701211912
  0.1661623352124271  0.9449486648986175  0.5927969175584207
  0.2777778329655831  0.8333331669977753  0.3696939549006542
  0.5161110633364099  0.3100002922204145  0.5927948596393560
  0.6113342276853077  0.1681699701596211  0.3694401701211912
  0.5161110623618650  0.5949999372241311  0.5927948596393560
  0.6111111661783042  0.4999998333333338  0.3675627849116614
  0.5010081609059484  0.9449486648985416  0.5927969175584207
  0.6113342258906008  0.8320527571166334  0.3694401701211912
  0.8320634483346848  0.2790475508787604  0.5930141846024570
  0.9444444993910253  0.1666664996688922  0.3695860834920364
  0.8011107061699797  0.5949999372221204  0.5927948596393560
  0.9429410280059938  0.4997767727237183  0.3694401701211912
  0.8320634465390149  0.9419050649090674  0.5930141846024570
  0.9429410271085771  0.8320527571166085  0.3694401701211912
  0.0556561836562312  0.0554548183031416  0.4810425669779102
  0.0556561827606970  0.3890901957337461  0.4810425669779102
  0.0542107128084105  0.7215497729834786  0.4808655666704093
  0.3895612286219443  0.0569002873661896  0.4808655666704093
  0.3902337431243047  0.3895612878731793  0.4796109517006880
  0.3895612268220187  0.7215497729836656  0.4808655666704093
  0.7220208045243947  0.0554548183031216  0.4810425669779102
  0.7215497114857023  0.3895612878732354  0.4796109517006880
  0.7215497105915664  0.7208772575869192  0.4796109517006880
  0.2780792159121704  0.1671433381648655  0.4454921302357403
  0.1671395940029771  0.2780143793809098  0.5165010496087663
  0.2830169921243835  0.1694494492289508  0.6276267653383683
  0.1666690142629215  0.2777790895118574  0.3321699359660394
  0.2780792150160242  0.4998243759928388  0.4454921302357403
  0.1668352988989029  0.6114487634373528  0.5164798837027847
  0.2830169912232962  0.5024560411338582  0.6276267653383683
  0.1664223859713755  0.6106229375822566  0.3329278175479315
  0.2777778329655831  0.8333331669977753  0.4453584725605419
  0.1668352980048071  0.9442757021112904  0.5164798837027847
  0.2777778329655831  0.8333331669977753  0.6288250509319919
  0.1664223850756933  0.9446886150388589  0.3329278175479315
  0.6112866244166353  0.1671433381648262  0.4454921302357403
  0.5014122091806956  0.2806025839112651  0.5155174489832723
  0.6086549592686343  0.1694494492290944  0.6276267653383683
  0.4994345205734224  0.2766472066964779  0.3311320853866574
  0.6111111661783042  0.4999998333333338  0.4435863036537537
  0.5014122082948083  0.6096987913775667  0.5155174489832723
  0.4994345196781800  0.6116764799850805  0.3311320853866574
  0.6112866226226420  0.8330317858423325  0.4454921302357403
  0.4996622353263743  0.9442757021113475  0.5164798837027847
  0.6086549574768080  0.8280940096371717  0.6276267653383683
  0.5004880611830155  0.9446886150388754  0.3329278175479315
  0.9444444993910253  0.1666664996688922  0.4455197347208662
  0.8330966198283201  0.2780143793809421  0.5165010496087663
  0.9444444993910253  0.1666664996688922  0.6281474171635119
  0.8333319096993232  0.2777790895118396  0.3321699359660394
  0.9439676600000931  0.4998243759928037  0.4454921302357403
  0.8305084143927507  0.6096987913778348  0.5155174489832723
  0.9416615489337139  0.5024560411338787  0.6276267653383683
  0.8344637916166521  0.6116764799851078  0.3311320853866574
  0.9439676591022529  0.8330317858423366  0.4454921302357403
  0.8330966180369435  0.9439714079048142  0.5165010496087663
  0.9416615480429819  0.8280940096370490  0.6276267653383683
  0.8333319079059959  0.9444419876429694  0.3321699359660394
  0.6111109439560849  0.5000000555555530  0.6472951714405499
  0.6111109439560849  0.5000000555555530  0.6985085489427554

  0.00000000E+00  0.00000000E+00  0.00000000E+00
  0.00000000E+00  0.00000000E+00  0.00000000E+00
  0.00000000E+00  0.00000000E+00  0.00000000E+00
  0.00000000E+00  0.00000000E+00  0.00000000E+00
  0.00000000E+00  0.00000000E+00  0.00000000E+00
  0.00000000E+00  0.00000000E+00  0.00000000E+00
  0.00000000E+00  0.00000000E+00  0.00000000E+00
  0.00000000E+00  0.00000000E+00  0.00000000E+00
  0.00000000E+00  0.00000000E+00  0.00000000E+00
  0.00000000E+00  0.00000000E+00  0.00000000E+00
  0.00000000E+00  0.00000000E+00  0.00000000E+00
  0.00000000E+00  0.00000000E+00  0.00000000E+00
  0.00000000E+00  0.00000000E+00  0.00000000E+00
  0.00000000E+00  0.00000000E+00  0.00000000E+00
  0.00000000E+00  0.00000000E+00  0.00000000E+00
  0.00000000E+00  0.00000000E+00  0.00000000E+00
  0.00000000E+00  0.00000000E+00  0.00000000E+00
  0.00000000E+00  0.00000000E+00  0.00000000E+00
  0.00000000E+00  0.00000000E+00  0.00000000E+00
  0.00000000E+00  0.00000000E+00  0.00000000E+00
  0.00000000E+00  0.00000000E+00  0.00000000E+00
  0.00000000E+00  0.00000000E+00  0.00000000E+00
  0.00000000E+00  0.00000000E+00  0.00000000E+00
  0.00000000E+00  0.00000000E+00  0.00000000E+00
  0.00000000E+00  0.00000000E+00  0.00000000E+00
  0.00000000E+00  0.00000000E+00  0.00000000E+00
  0.00000000E+00  0.00000000E+00  0.00000000E+00
  0.00000000E+00  0.00000000E+00  0.00000000E+00
  0.00000000E+00  0.00000000E+00  0.00000000E+00
  0.00000000E+00  0.00000000E+00  0.00000000E+00
  0.00000000E+00  0.00000000E+00  0.00000000E+00
  0.00000000E+00  0.00000000E+00  0.00000000E+00
  0.00000000E+00  0.00000000E+00  0.00000000E+00
  0.00000000E+00  0.00000000E+00  0.00000000E+00
  0.00000000E+00  0.00000000E+00  0.00000000E+00
  0.00000000E+00  0.00000000E+00  0.00000000E+00
  0.00000000E+00  0.00000000E+00  0.00000000E+00
  0.00000000E+00  0.00000000E+00  0.00000000E+00
  0.00000000E+00  0.00000000E+00  0.00000000E+00
  0.00000000E+00  0.00000000E+00  0.00000000E+00
  0.00000000E+00  0.00000000E+00  0.00000000E+00
  0.00000000E+00  0.00000000E+00  0.00000000E+00
  0.00000000E+00  0.00000000E+00  0.00000000E+00
  0.00000000E+00  0.00000000E+00  0.00000000E+00
  0.00000000E+00  0.00000000E+00  0.00000000E+00
  0.00000000E+00  0.00000000E+00  0.00000000E+00
  0.00000000E+00  0.00000000E+00  0.00000000E+00
  0.00000000E+00  0.00000000E+00  0.00000000E+00
  0.00000000E+00  0.00000000E+00  0.00000000E+00
  0.00000000E+00  0.00000000E+00  0.00000000E+00
  0.00000000E+00  0.00000000E+00  0.00000000E+00
  0.00000000E+00  0.00000000E+00  0.00000000E+00
  0.00000000E+00  0.00000000E+00  0.00000000E+00
  0.00000000E+00  0.00000000E+00  0.00000000E+00
  0.00000000E+00  0.00000000E+00  0.00000000E+00
  0.00000000E+00  0.00000000E+00  0.00000000E+00
  0.00000000E+00  0.00000000E+00  0.00000000E+00
  0.00000000E+00  0.00000000E+00  0.00000000E+00
  0.00000000E+00  0.00000000E+00  0.00000000E+00
  0.00000000E+00  0.00000000E+00  0.00000000E+00
  0.00000000E+00  0.00000000E+00  0.00000000E+00
  0.00000000E+00  0.00000000E+00  0.00000000E+00
  0.00000000E+00  0.00000000E+00  0.00000000E+00
  0.00000000E+00  0.00000000E+00  0.00000000E+00
