Ga Co  S Fe                             
   1.0000000000000000     
    10.5928793505449299   -0.0000000001449551    0.0000000000000000
    -5.2964396254948083    9.1737048188061880   -0.0000000000000000
     0.0000000000000000    0.0000000000000000   29.6386403426784746
   Ga   Co   S    Fe
    18     9    35     1
Direct
  0.1696430401329409  0.2792661024491387  0.5926993081764552
  0.2783819713936126  0.1671326282496616  0.3693754785332621
  0.1657730366942527  0.6093242390280660  0.5921759367722950
  0.2783819704965409  0.5001378413892995  0.3693754785332621
  0.1657730358007121  0.9453379643159268  0.5921759367722950
  0.2777778329655831  0.8333331669977753  0.3690409490428537
  0.5164685174852585  0.3107152005180160  0.5923640638180568
  0.6109731590200128  0.1671326282496272  0.3693754785332621
  0.5164685165069821  0.5946424830753784  0.5923640638180568
  0.6111111661783042  0.4999998333333338  0.3685089467723335
  0.5017867597351198  0.9453379643159978  0.5921759367722950
  0.6109731572252790  0.8327290303610942  0.3693754785332621
  0.8318448967665850  0.2792661024490042  0.5926993081764552
  0.9444444993910253  0.1666664996688922  0.3698262034021701
  0.8003957978760141  0.5946424830732718  0.5923640638180568
  0.9439783699160137  0.5001378413892456  0.3693754785332621
  0.8318448949687142  0.9414679617685232  0.5926993081764552
  0.9439783690183584  0.8327290303610749  0.3693754785332621
  0.0558550777671189  0.0552559241913635  0.4808777538745473
  0.0558550768724986  0.3894879839573259  0.4808777538745473
  0.0547748882727002  0.7218318607180756  0.4803641364564118
  0.3892791408873464  0.0563361118971206  0.4803641364564118
  0.3903151015656207  0.3896019670964257  0.4800590382813016
  0.3892791390923266  0.7218318607181372  0.4803641364564118
  0.7216230163017057  0.0552559241913200  0.4808777538745473
  0.7215090322676326  0.3896019670963488  0.4800590382813016
  0.7215090313683196  0.7207958991405590  0.4800590382813016
  0.2782837318996453  0.1671716574634018  0.4453520277616362
  0.1675206827704505  0.2782049237656418  0.5162070018796522
  0.2825330306088490  0.1689083864427427  0.6270405278137909
  0.1664437026655791  0.2776664337130794  0.3324763366080381
  0.2782837310033865  0.5000005726825172  0.4453520277616362
  0.1672416416403567  0.6122614489202529  0.5157857018310442
  0.2825330297146976  0.5025131424052164  0.6270405278137909
  0.1663840343845573  0.6105462344085946  0.3323562531007691
  0.2777778329655831  0.8333331669977753  0.4446044860322847
  0.1672416407459955  0.9438693593698435  0.5157857018310442
  0.2777778329655831  0.8333331669977753  0.6276679654409840
  0.1663840334878615  0.9447269666257032  0.3323562531007691
  0.6111104277277000  0.1671716574633435  0.4453520277616362
  0.5005056084861566  0.2787893825220253  0.5156299706453074
  0.6085978579977825  0.1689083864428686  0.6270405278137909
  0.4997600482274939  0.2772982620046077  0.3317524176791486
  0.6111111661783042  0.4999998333333338  0.4445297099255532
  0.5005056075939766  0.6106053920722674  0.5156299706453074
  0.4997600473317285  0.6113509523310224  0.3317524176791486
  0.6111104259328536  0.8328272698541395  0.4453520277616362
  0.4988495498437323  0.9438693593698942  0.5157857018310442
  0.6085978562122073  0.8285779711518603  0.6270405278137909
  0.5005647643576657  0.9447269666256934  0.3323562531007691
  0.9444444993910253  0.1666664996688922  0.4457646610553075
  0.8329060754455784  0.2782049237656228  0.5162070018796522
  0.9444444993910253  0.1666664996688922  0.6273429007399822
  0.8334445654978878  0.2776664337130675  0.3324763366080381
  0.9439393407024067  0.5000005726824598  0.4453520277616362
  0.8323216157881212  0.6106053920723739  0.5156299706453074
  0.9422026117138493  0.5025131424053980  0.6270405278137909
  0.8338127363090323  0.6113509523310363  0.3317524176791486
  0.9439393398038265  0.8328272698541404  0.4453520277616362
  0.8329060736522117  0.9435903191354015  0.5162070018796522
  0.9422026108224325  0.8285779711519161  0.6270405278137909
  0.8334445637047740  0.9446672992405196  0.3324763366080381
  0.6111109439560849  0.5000000555555530  0.6413563500396083

  0.00000000E+00  0.00000000E+00  0.00000000E+00
  0.00000000E+00  0.00000000E+00  0.00000000E+00
  0.00000000E+00  0.00000000E+00  0.00000000E+00
  0.00000000E+00  0.00000000E+00  0.00000000E+00
  0.00000000E+00  0.00000000E+00  0.00000000E+00
  0.00000000E+00  0.00000000E+00  0.00000000E+00
  0.00000000E+00  0.00000000E+00  0.00000000E+00
  0.00000000E+00  0.00000000E+00  0.00000000E+00
  0.00000000E+00  0.00000000E+00  0.00000000E+00
  0.00000000E+00  0.00000000E+00  0.00000000E+00
  0.00000000E+00  0.00000000E+00  0.00000000E+00
  0.00000000E+00  0.00000000E+00  0.00000000E+00
  0.00000000E+00  0.00000000E+00  0.00000000E+00
  0.00000000E+00  0.00000000E+00  0.00000000E+00
  0.00000000E+00  0.00000000E+00  0.00000000E+00
  0.00000000E+00  0.00000000E+00  0.00000000E+00
  0.00000000E+00  0.00000000E+00  0.00000000E+00
  0.00000000E+00  0.00000000E+00  0.00000000E+00
  0.00000000E+00  0.00000000E+00  0.00000000E+00
  0.00000000E+00  0.00000000E+00  0.00000000E+00
  0.00000000E+00  0.00000000E+00  0.00000000E+00
  0.00000000E+00  0.00000000E+00  0.00000000E+00
  0.00000000E+00  0.00000000E+00  0.00000000E+00
  0.00000000E+00  0.00000000E+00  0.00000000E+00
  0.00000000E+00  0.00000000E+00  0.00000000E+00
  0.00000000E+00  0.00000000E+00  0.00000000E+00
  0.00000000E+00  0.00000000E+00  0.00000000E+00
  0.00000000E+00  0.00000000E+00  0.00000000E+00
  0.00000000E+00  0.00000000E+00  0.00000000E+00
  0.00000000E+00  0.00000000E+00  0.00000000E+00
  0.00000000E+00  0.00000000E+00  0.00000000E+00
  0.00000000E+00  0.00000000E+00  0.00000000E+00
  0.00000000E+00  0.00000000E+00  0.00000000E+00
  0.00000000E+00  0.00000000E+00  0.00000000E+00
  0.00000000E+00  0.00000000E+00  0.00000000E+00
  0.00000000E+00  0.00000000E+00  0.00000000E+00
  0.00000000E+00  0.00000000E+00  0.00000000E+00
  0.00000000E+00  0.00000000E+00  0.00000000E+00
  0.00000000E+00  0.00000000E+00  0.00000000E+00
  0.00000000E+00  0.00000000E+00  0.00000000E+00
  0.00000000E+00  0.00000000E+00  0.00000000E+00
  0.00000000E+00  0.00000000E+00  0.00000000E+00
  0.00000000E+00  0.00000000E+00  0.00000000E+00
  0.00000000E+00  0.00000000E+00  0.00000000E+00
  0.00000000E+00  0.00000000E+00  0.00000000E+00
  0.00000000E+00  0.00000000E+00  0.00000000E+00
  0.00000000E+00  0.00000000E+00  0.00000000E+00
  0.00000000E+00  0.00000000E+00  0.00000000E+00
  0.00000000E+00  0.00000000E+00  0.00000000E+00
  0.00000000E+00  0.00000000E+00  0.00000000E+00
  0.00000000E+00  0.00000000E+00  0.00000000E+00
  0.00000000E+00  0.00000000E+00  0.00000000E+00
  0.00000000E+00  0.00000000E+00  0.00000000E+00
  0.00000000E+00  0.00000000E+00  0.00000000E+00
  0.00000000E+00  0.00000000E+00  0.00000000E+00
  0.00000000E+00  0.00000000E+00  0.00000000E+00
  0.00000000E+00  0.00000000E+00  0.00000000E+00
  0.00000000E+00  0.00000000E+00  0.00000000E+00
  0.00000000E+00  0.00000000E+00  0.00000000E+00
  0.00000000E+00  0.00000000E+00  0.00000000E+00
  0.00000000E+00  0.00000000E+00  0.00000000E+00
  0.00000000E+00  0.00000000E+00  0.00000000E+00
  0.00000000E+00  0.00000000E+00  0.00000000E+00
