Ga Co  S Cu                             
   1.0000000000000000     
    10.6154679650317227   -0.0000000000138589    0.0000000000000000
    -5.3077339325182527    9.1932671475114542   -0.0000000000000000
     0.0000000000000000    0.0000000000000000   29.6904728294268843
   Ga   Co   S    Cu
    18     9    35     1
Direct
  0.1693046467174275  0.2790969057391405  0.5924271661005406
  0.2790369133354760  0.1682060555705928  0.3696660901406028
  0.1661657581363382  0.6101096819121337  0.5917303914602929
  0.2790369124382138  0.4997193560103734  0.3696660901406028
  0.1661657572387530  0.9449452428739449  0.5917303914602929
  0.2777778329655831  0.8333331669977753  0.3696521575241373
  0.5091162062450744  0.2960105780382880  0.5920749450874289
  0.6113916443990860  0.1682060555705547  0.3696660901406028
  0.5091162052916897  0.6019947943149226  0.5920749450874289
  0.6111111661783042  0.4999998333333338  0.3679867148375843
  0.5010013168549935  0.9449452428739122  0.5917303914602929
  0.6113916426040199  0.8320740884190976  0.3696660901406028
  0.8320140934721002  0.2790969057391210  0.5924271661005406
  0.9444444993910253  0.1666664996688922  0.3701279062086050
  0.8151004203314907  0.6019947943134559  0.5920749450874289
  0.9429049425954098  0.4997193560103109  0.3696660901406028
  0.8320140916787128  0.9418063551884049  0.5924271661005406
  0.9429049416976132  0.8320740884190733  0.3696660901406028
  0.0555977845616246  0.0555132173977475  0.4808489081546365
  0.0555977836660912  0.3889733975445343  0.4808489081546365
  0.0545347046076133  0.7217117688867205  0.4803252958281055
  0.3893992327187022  0.0565762955598926  0.4803252958281055
  0.3903499268328318  0.3896193797285731  0.4795808383137306
  0.3893992309260580  0.7217117688867208  0.4803252958281055
  0.7221376027136071  0.0555132173977274  0.4808489081546365
  0.7214916196325687  0.3896193797285710  0.4795808383137306
  0.7214916187361724  0.7207610738761895  0.4795808383137306
  0.2781862903949443  0.1676173695559024  0.4454976389973560
  0.1678161690393661  0.2783526668988494  0.5163297904586704
  0.2791830385698962  0.1662267407145760  0.6276333163687745
  0.1663289034632881  0.2776090341118016  0.3328207942178720
  0.2781862894989852  0.4994574190835230  0.4454976389973560
  0.1666868746399839  0.6111519149195842  0.5158158771713112
  0.2791830376713454  0.5018447960922470  0.6276333163687745
  0.1662884611379190  0.6103550879152866  0.3334026720176875
  0.2777778329655831  0.8333331669977753  0.4448527134180607
  0.1666868737486079  0.9444241263701397  0.5158158771713112
  0.2777778329655831  0.8333331669977753  0.6275646902786295
  0.1662884602400173  0.9448225398723723  0.3334026720176875
  0.6116535813248940  0.1676173695558903  0.4454976389973560
  0.5011886791826585  0.2801555239150439  0.5151751112840300
  0.6092662043086817  0.1662267407147581  0.6276333163687745
  0.4995520350708798  0.2768822356913700  0.3317419858631270
  0.6111111661783042  0.4999998333333338  0.4438414341892385
  0.5011886782910416  0.6099223213757505  0.5151751112840300
  0.4995520341747458  0.6115589654876457  0.3317419858631270
  0.6116535795321397  0.8329247113605787  0.4454976389973560
  0.4999590838414926  0.9444241263702671  0.5158158771713112
  0.6092662025208906  0.8319279631930536  0.6276333163687745
  0.5007559108521480  0.9448225398723320  0.3334026720176875
  0.9444444993910253  0.1666664996688922  0.4458593077648161
  0.8327583323098704  0.2783526668988948  0.5163297904586704
  0.9444444993910253  0.1666664996688922  0.6273145361925681
  0.8335019650989006  0.2776090341117962  0.3328207942178720
  0.9434936286078218  0.4994574190835201  0.4454976389973560
  0.8309554743945540  0.6099223213758718  0.5151751112840300
  0.9448842574441187  0.5018447960923712  0.6276333163687745
  0.8342287626226293  0.6115589654876507  0.3317419858631270
  0.9434936277110338  0.8329247113605880  0.4454976389973560
  0.8327583305190038  0.9432948328689222  0.5163297904586704
  0.9448842565548855  0.8319279631929963  0.6276333163687745
  0.8335019633060514  0.9447820984430683  0.3328207942178720
  0.6111109439560849  0.5000000555555530  0.6366910731459520

  0.00000000E+00  0.00000000E+00  0.00000000E+00
  0.00000000E+00  0.00000000E+00  0.00000000E+00
  0.00000000E+00  0.00000000E+00  0.00000000E+00
  0.00000000E+00  0.00000000E+00  0.00000000E+00
  0.00000000E+00  0.00000000E+00  0.00000000E+00
  0.00000000E+00  0.00000000E+00  0.00000000E+00
  0.00000000E+00  0.00000000E+00  0.00000000E+00
  0.00000000E+00  0.00000000E+00  0.00000000E+00
  0.00000000E+00  0.00000000E+00  0.00000000E+00
  0.00000000E+00  0.00000000E+00  0.00000000E+00
  0.00000000E+00  0.00000000E+00  0.00000000E+00
  0.00000000E+00  0.00000000E+00  0.00000000E+00
  0.00000000E+00  0.00000000E+00  0.00000000E+00
  0.00000000E+00  0.00000000E+00  0.00000000E+00
  0.00000000E+00  0.00000000E+00  0.00000000E+00
  0.00000000E+00  0.00000000E+00  0.00000000E+00
  0.00000000E+00  0.00000000E+00  0.00000000E+00
  0.00000000E+00  0.00000000E+00  0.00000000E+00
  0.00000000E+00  0.00000000E+00  0.00000000E+00
  0.00000000E+00  0.00000000E+00  0.00000000E+00
  0.00000000E+00  0.00000000E+00  0.00000000E+00
  0.00000000E+00  0.00000000E+00  0.00000000E+00
  0.00000000E+00  0.00000000E+00  0.00000000E+00
  0.00000000E+00  0.00000000E+00  0.00000000E+00
  0.00000000E+00  0.00000000E+00  0.00000000E+00
  0.00000000E+00  0.00000000E+00  0.00000000E+00
  0.00000000E+00  0.00000000E+00  0.00000000E+00
  0.00000000E+00  0.00000000E+00  0.00000000E+00
  0.00000000E+00  0.00000000E+00  0.00000000E+00
  0.00000000E+00  0.00000000E+00  0.00000000E+00
  0.00000000E+00  0.00000000E+00  0.00000000E+00
  0.00000000E+00  0.00000000E+00  0.00000000E+00
  0.00000000E+00  0.00000000E+00  0.00000000E+00
  0.00000000E+00  0.00000000E+00  0.00000000E+00
  0.00000000E+00  0.00000000E+00  0.00000000E+00
  0.00000000E+00  0.00000000E+00  0.00000000E+00
  0.00000000E+00  0.00000000E+00  0.00000000E+00
  0.00000000E+00  0.00000000E+00  0.00000000E+00
  0.00000000E+00  0.00000000E+00  0.00000000E+00
  0.00000000E+00  0.00000000E+00  0.00000000E+00
  0.00000000E+00  0.00000000E+00  0.00000000E+00
  0.00000000E+00  0.00000000E+00  0.00000000E+00
  0.00000000E+00  0.00000000E+00  0.00000000E+00
  0.00000000E+00  0.00000000E+00  0.00000000E+00
  0.00000000E+00  0.00000000E+00  0.00000000E+00
  0.00000000E+00  0.00000000E+00  0.00000000E+00
  0.00000000E+00  0.00000000E+00  0.00000000E+00
  0.00000000E+00  0.00000000E+00  0.00000000E+00
  0.00000000E+00  0.00000000E+00  0.00000000E+00
  0.00000000E+00  0.00000000E+00  0.00000000E+00
  0.00000000E+00  0.00000000E+00  0.00000000E+00
  0.00000000E+00  0.00000000E+00  0.00000000E+00
  0.00000000E+00  0.00000000E+00  0.00000000E+00
  0.00000000E+00  0.00000000E+00  0.00000000E+00
  0.00000000E+00  0.00000000E+00  0.00000000E+00
  0.00000000E+00  0.00000000E+00  0.00000000E+00
  0.00000000E+00  0.00000000E+00  0.00000000E+00
  0.00000000E+00  0.00000000E+00  0.00000000E+00
  0.00000000E+00  0.00000000E+00  0.00000000E+00
  0.00000000E+00  0.00000000E+00  0.00000000E+00
  0.00000000E+00  0.00000000E+00  0.00000000E+00
  0.00000000E+00  0.00000000E+00  0.00000000E+00
  0.00000000E+00  0.00000000E+00  0.00000000E+00
