Ga Co  S Mn                             
   1.0000000000000000     
    10.5893666358194043   -0.0000000001395771   -0.0000000000000000
    -5.2946832681439329    9.1706627182941673    0.0000000000000000
    -0.0000000000000000   -0.0000000000000000   29.7918342300923911
   Ga   Co   S    Mn
    18     9    35     1
Direct
  0.1692730454552492  0.2790811051087632  0.5920678575352339
  0.2789920224307676  0.1679869389198470  0.3698379119164069
  0.1662242981556154  0.6102267619507754  0.5916706629953133
  0.2789920215340702  0.4998935817555027  0.3698379119164069
  0.1662242972614474  0.9448867028545799  0.5916706629953133
  0.2777778329655831  0.8333331669977753  0.3698310190667778
  0.5163736663060164  0.3105254981608571  0.5910509358908921
  0.6112174186530336  0.1679869389198322  0.3698379119164069
  0.5163736653793068  0.5947373342532950  0.5910509358908921
  0.6111111661783042  0.4999998333333338  0.3681866283890538
  0.5008842368130215  0.9448867028546351  0.5916706629953133
  0.6112174168594408  0.8321189793246763  0.3698379119164069
  0.8320298941039008  0.2790811051087073  0.5920678575352339
  0.9444444993910253  0.1666664996688922  0.3702334174094707
  0.8005855001829314  0.5947373342525138  0.5910509358908921
  0.9431240592446970  0.4998935817554782  0.3698379119164069
  0.8320298923090901  0.9418379564491961  0.5920678575352339
  0.9431240583478083  0.8321189793246666  0.3698379119164069
  0.0556857848687787  0.0554252170910311  0.4807438983879566
  0.0556857839727960  0.3891493981579556  0.4807438983879566
  0.0553502976120100  0.7221195653888056  0.4801702174175740
  0.3889914362166167  0.0557607025557160  0.4801702174175740
  0.3904151944103253  0.3896520135176382  0.4795251015352891
  0.3889914344237468  0.7221195653888118  0.4801702174175740
  0.7219616020997482  0.0554252170910226  0.4807438983879566
  0.7214589858441403  0.3896520135176199  0.4795251015352891
  0.7214589849471073  0.7206958062980755  0.4795251015352891
  0.2781070712882137  0.1672070918766704  0.4454035870239381
  0.1675170244367667  0.2782030945984404  0.5160943203337207
  0.2825574782084611  0.1688911283356039  0.6265236941630629
  0.1664593863482615  0.2776742755543232  0.3329988533732622
  0.2781070703920167  0.4997884776564485  0.4454035870239381
  0.1668310229865332  0.6114402116125808  0.5157931798368004
  0.2825574773153665  0.5025548481133674  0.6265236941630629
  0.1663957639974795  0.6105696936344458  0.3334731610692276
  0.2777778329655831  0.8333331669977753  0.4448420365078807
  0.1668310220911888  0.9442799780236923  0.5157931798368004
  0.2777778329655831  0.8333331669977753  0.6275816518970163
  0.1663957631010644  0.9447152370127735  0.3334731610692276
  0.6113225227523980  0.1672070918766473  0.4454035870239381
  0.5007038752401359  0.2791859160299947  0.5148969761473293
  0.6085561522910048  0.1688911283356939  0.6265236941630629
  0.4994973062474969  0.2767727780446076  0.3318915923501470
  0.6111111661783042  0.4999998333333338  0.4437517605795013
  0.5007038743483898  0.6104071253182772  0.5148969761473293
  0.4994973053515111  0.6116136943110251  0.3318915923501470
  0.6113225209589824  0.8330039304669026  0.4454035870239381
  0.4996707871523622  0.9442799780237177  0.5157931798368004
  0.6085561505050860  0.8285535235508575  0.6265236941630629
  0.5005413051315405  0.9447152370127713  0.3334731610692276
  0.9444444993910253  0.1666664996688922  0.4456887999451161
  0.8329079046120610  0.2782030945984400  0.5160943203337207
  0.9444444993910253  0.1666664996688922  0.6269764487598302
  0.8334367236564488  0.2776742755543160  0.3329988533732622
  0.9439039062877093  0.4997884776564281  0.4454035870239381
  0.8319250822797289  0.6104071253183945  0.5148969761473293
  0.9422198698213583  0.5025548481135401  0.6265236941630629
  0.8343382202692471  0.6116136943110335  0.3318915923501470
  0.9439039053904974  0.8330039304669056  0.4454035870239381
  0.8329079028194130  0.9435939774697858  0.5160943203337207
  0.9422198689285415  0.8285535235509398  0.6265236941630629
  0.8334367218635299  0.9446516155580271  0.3329988533732622
  0.6111109439560849  0.5000000555555530  0.6486809426789573

  0.00000000E+00  0.00000000E+00  0.00000000E+00
  0.00000000E+00  0.00000000E+00  0.00000000E+00
  0.00000000E+00  0.00000000E+00  0.00000000E+00
  0.00000000E+00  0.00000000E+00  0.00000000E+00
  0.00000000E+00  0.00000000E+00  0.00000000E+00
  0.00000000E+00  0.00000000E+00  0.00000000E+00
  0.00000000E+00  0.00000000E+00  0.00000000E+00
  0.00000000E+00  0.00000000E+00  0.00000000E+00
  0.00000000E+00  0.00000000E+00  0.00000000E+00
  0.00000000E+00  0.00000000E+00  0.00000000E+00
  0.00000000E+00  0.00000000E+00  0.00000000E+00
  0.00000000E+00  0.00000000E+00  0.00000000E+00
  0.00000000E+00  0.00000000E+00  0.00000000E+00
  0.00000000E+00  0.00000000E+00  0.00000000E+00
  0.00000000E+00  0.00000000E+00  0.00000000E+00
  0.00000000E+00  0.00000000E+00  0.00000000E+00
  0.00000000E+00  0.00000000E+00  0.00000000E+00
  0.00000000E+00  0.00000000E+00  0.00000000E+00
  0.00000000E+00  0.00000000E+00  0.00000000E+00
  0.00000000E+00  0.00000000E+00  0.00000000E+00
  0.00000000E+00  0.00000000E+00  0.00000000E+00
  0.00000000E+00  0.00000000E+00  0.00000000E+00
  0.00000000E+00  0.00000000E+00  0.00000000E+00
  0.00000000E+00  0.00000000E+00  0.00000000E+00
  0.00000000E+00  0.00000000E+00  0.00000000E+00
  0.00000000E+00  0.00000000E+00  0.00000000E+00
  0.00000000E+00  0.00000000E+00  0.00000000E+00
  0.00000000E+00  0.00000000E+00  0.00000000E+00
  0.00000000E+00  0.00000000E+00  0.00000000E+00
  0.00000000E+00  0.00000000E+00  0.00000000E+00
  0.00000000E+00  0.00000000E+00  0.00000000E+00
  0.00000000E+00  0.00000000E+00  0.00000000E+00
  0.00000000E+00  0.00000000E+00  0.00000000E+00
  0.00000000E+00  0.00000000E+00  0.00000000E+00
  0.00000000E+00  0.00000000E+00  0.00000000E+00
  0.00000000E+00  0.00000000E+00  0.00000000E+00
  0.00000000E+00  0.00000000E+00  0.00000000E+00
  0.00000000E+00  0.00000000E+00  0.00000000E+00
  0.00000000E+00  0.00000000E+00  0.00000000E+00
  0.00000000E+00  0.00000000E+00  0.00000000E+00
  0.00000000E+00  0.00000000E+00  0.00000000E+00
  0.00000000E+00  0.00000000E+00  0.00000000E+00
  0.00000000E+00  0.00000000E+00  0.00000000E+00
  0.00000000E+00  0.00000000E+00  0.00000000E+00
  0.00000000E+00  0.00000000E+00  0.00000000E+00
  0.00000000E+00  0.00000000E+00  0.00000000E+00
  0.00000000E+00  0.00000000E+00  0.00000000E+00
  0.00000000E+00  0.00000000E+00  0.00000000E+00
  0.00000000E+00  0.00000000E+00  0.00000000E+00
  0.00000000E+00  0.00000000E+00  0.00000000E+00
  0.00000000E+00  0.00000000E+00  0.00000000E+00
  0.00000000E+00  0.00000000E+00  0.00000000E+00
  0.00000000E+00  0.00000000E+00  0.00000000E+00
  0.00000000E+00  0.00000000E+00  0.00000000E+00
  0.00000000E+00  0.00000000E+00  0.00000000E+00
  0.00000000E+00  0.00000000E+00  0.00000000E+00
  0.00000000E+00  0.00000000E+00  0.00000000E+00
  0.00000000E+00  0.00000000E+00  0.00000000E+00
  0.00000000E+00  0.00000000E+00  0.00000000E+00
  0.00000000E+00  0.00000000E+00  0.00000000E+00
  0.00000000E+00  0.00000000E+00  0.00000000E+00
  0.00000000E+00  0.00000000E+00  0.00000000E+00
  0.00000000E+00  0.00000000E+00  0.00000000E+00
