Ga Co  S Fe  H                          
   1.0000000000000000     
    10.5786324424366605   -0.0000000002068569   -0.0000000000000000
    -5.2893161715613983    9.1613666267587384    0.0000000000000000
     0.0000000000000000    0.0000000000000000   29.5630433851753267
   Ga   Co   S    Fe   H 
    18     9    35     1     1
Direct
  0.1696879195174119  0.2792885421392955  0.5932871622716251
  0.2786162336911107  0.1675737112322843  0.3692383316223228
  0.1657738760926657  0.6093259178248117  0.5929461950686111
  0.2786162327949062  0.4999310207030987  0.3692383316223228
  0.1657738751959986  0.9453371249175940  0.5929461950686111
  0.2777778329655831  0.8333331669977753  0.3693913673565554
  0.5167132216293516  0.3112046088085393  0.5926739479428628
  0.6111799797051156  0.1675737112322775  0.3692383316223228
  0.5167132207420124  0.5943977789289484  0.5926739479428628
  0.6111111661783042  0.4999998333333338  0.3684038549428996
  0.5017850809414198  0.9453371249175851  0.5929461950686111
  0.6111799779123251  0.8324947680646225  0.3692383316223228
  0.8318224570722706  0.2792885421392678  0.5932871622716251
  0.9444444993910253  0.1666664996688922  0.3695962044913038
  0.7999063894968909  0.5943977789291787  0.5926739479428628
  0.9435372869314698  0.4999310207030950  0.3692383316223228
  0.8318224552785578  0.9414230823881032  0.5932871622716251
  0.9435372860348910  0.8324947680646251  0.3692383316223228
  0.0557476804645618  0.0553633214949656  0.4810999680361105
  0.0557476795688690  0.3892731893500942  0.4810999680361105
  0.0554045662870237  0.7221466997252056  0.4806732021399647
  0.3889643018802169  0.0557064338828593  0.4806732021399647
  0.3903241785706845  0.3896065055969115  0.4801870951649300
  0.3889643000851327  0.7221466997252683  0.4806732021399647
  0.7218378109078921  0.0553633214949496  0.4810999680361105
  0.7215044937630546  0.3896065055969395  0.4801870951649300
  0.7215044928678338  0.7207868221394826  0.4801870951649300
  0.2779254670173265  0.1668806033759264  0.4453935996353939
  0.1676051868024188  0.2782471757811666  0.5165589311494903
  0.2833737473052714  0.1696486291862642  0.6276966349068362
  0.1665272691798309  0.2777082169701341  0.3320592713078202
  0.2779254661211591  0.4999333618870913  0.4453935996353939
  0.1668098252814869  0.6113978162024778  0.5162862544455025
  0.2833737464094428  0.5026136163607408  0.6276966349068362
  0.1665839195493272  0.6109460047381517  0.3324395527304064
  0.2777778329655831  0.8333331669977753  0.4454300516140980
  0.1668098243857295  0.9443011757287496  0.5162862544455025
  0.2777778329655831  0.8333331669977753  0.6284525351243123
  0.1665839186533203  0.9445270814609156  0.3324395527304064
  0.6111776385225408  0.1668806033758831  0.4453935996353939
  0.4998443428804519  0.2774668513105658  0.5156632464388111
  0.6084973840449251  0.1696486291863226  0.6276966349068362
  0.4998336370331964  0.2774454396160069  0.3313995744349829
  0.6111111661783042  0.4999998333333338  0.4446393659048089
  0.4998443419863322  0.6112666576780221  0.5156632464388111
  0.4998336361372214  0.6112773635253256  0.3313995744349829
  0.6111776367283682  0.8331855347370231  0.4453935996353939
  0.4997131825628680  0.9443011757287638  0.5162862544455025
  0.6084973822550492  0.8277372544529259  0.6276966349068362
  0.5001649940274373  0.9445270814609236  0.3324395527304064
  0.9444444993910253  0.1666664996688922  0.4456806857468633
  0.8328638234291350  0.2782471757811714  0.5165589311494903
  0.9444444993910253  0.1666664996688922  0.6280116119709831
  0.8334027822406904  0.2777082169701253  0.3320592713078202
  0.9442303947892103  0.4999333618870518  0.4453935996353939
  0.8336441470014704  0.6112666576780784  0.5156632464388111
  0.9414623689745848  0.5026136163608114  0.6276966349068362
  0.8336655586978367  0.6112773635253340  0.3313995744349829
  0.9442303938912125  0.8331855347370271  0.4453935996353939
  0.8328638216366864  0.9435058151043281  0.5165589311494903
  0.9414623680805447  0.8277372544529384  0.6276966349068362
  0.8334027804477190  0.9445837327264068  0.3320592713078202
  0.6111109439560849  0.5000000555555530  0.6456438642140805
  0.6111109439560849  0.5000000555555530  0.6989535801776305

  0.00000000E+00  0.00000000E+00  0.00000000E+00
  0.00000000E+00  0.00000000E+00  0.00000000E+00
  0.00000000E+00  0.00000000E+00  0.00000000E+00
  0.00000000E+00  0.00000000E+00  0.00000000E+00
  0.00000000E+00  0.00000000E+00  0.00000000E+00
  0.00000000E+00  0.00000000E+00  0.00000000E+00
  0.00000000E+00  0.00000000E+00  0.00000000E+00
  0.00000000E+00  0.00000000E+00  0.00000000E+00
  0.00000000E+00  0.00000000E+00  0.00000000E+00
  0.00000000E+00  0.00000000E+00  0.00000000E+00
  0.00000000E+00  0.00000000E+00  0.00000000E+00
  0.00000000E+00  0.00000000E+00  0.00000000E+00
  0.00000000E+00  0.00000000E+00  0.00000000E+00
  0.00000000E+00  0.00000000E+00  0.00000000E+00
  0.00000000E+00  0.00000000E+00  0.00000000E+00
  0.00000000E+00  0.00000000E+00  0.00000000E+00
  0.00000000E+00  0.00000000E+00  0.00000000E+00
  0.00000000E+00  0.00000000E+00  0.00000000E+00
  0.00000000E+00  0.00000000E+00  0.00000000E+00
  0.00000000E+00  0.00000000E+00  0.00000000E+00
  0.00000000E+00  0.00000000E+00  0.00000000E+00
  0.00000000E+00  0.00000000E+00  0.00000000E+00
  0.00000000E+00  0.00000000E+00  0.00000000E+00
  0.00000000E+00  0.00000000E+00  0.00000000E+00
  0.00000000E+00  0.00000000E+00  0.00000000E+00
  0.00000000E+00  0.00000000E+00  0.00000000E+00
  0.00000000E+00  0.00000000E+00  0.00000000E+00
  0.00000000E+00  0.00000000E+00  0.00000000E+00
  0.00000000E+00  0.00000000E+00  0.00000000E+00
  0.00000000E+00  0.00000000E+00  0.00000000E+00
  0.00000000E+00  0.00000000E+00  0.00000000E+00
  0.00000000E+00  0.00000000E+00  0.00000000E+00
  0.00000000E+00  0.00000000E+00  0.00000000E+00
  0.00000000E+00  0.00000000E+00  0.00000000E+00
  0.00000000E+00  0.00000000E+00  0.00000000E+00
  0.00000000E+00  0.00000000E+00  0.00000000E+00
  0.00000000E+00  0.00000000E+00  0.00000000E+00
  0.00000000E+00  0.00000000E+00  0.00000000E+00
  0.00000000E+00  0.00000000E+00  0.00000000E+00
  0.00000000E+00  0.00000000E+00  0.00000000E+00
  0.00000000E+00  0.00000000E+00  0.00000000E+00
  0.00000000E+00  0.00000000E+00  0.00000000E+00
  0.00000000E+00  0.00000000E+00  0.00000000E+00
  0.00000000E+00  0.00000000E+00  0.00000000E+00
  0.00000000E+00  0.00000000E+00  0.00000000E+00
  0.00000000E+00  0.00000000E+00  0.00000000E+00
  0.00000000E+00  0.00000000E+00  0.00000000E+00
  0.00000000E+00  0.00000000E+00  0.00000000E+00
  0.00000000E+00  0.00000000E+00  0.00000000E+00
  0.00000000E+00  0.00000000E+00  0.00000000E+00
  0.00000000E+00  0.00000000E+00  0.00000000E+00
  0.00000000E+00  0.00000000E+00  0.00000000E+00
  0.00000000E+00  0.00000000E+00  0.00000000E+00
  0.00000000E+00  0.00000000E+00  0.00000000E+00
  0.00000000E+00  0.00000000E+00  0.00000000E+00
  0.00000000E+00  0.00000000E+00  0.00000000E+00
  0.00000000E+00  0.00000000E+00  0.00000000E+00
  0.00000000E+00  0.00000000E+00  0.00000000E+00
  0.00000000E+00  0.00000000E+00  0.00000000E+00
  0.00000000E+00  0.00000000E+00  0.00000000E+00
  0.00000000E+00  0.00000000E+00  0.00000000E+00
  0.00000000E+00  0.00000000E+00  0.00000000E+00
  0.00000000E+00  0.00000000E+00  0.00000000E+00
  0.00000000E+00  0.00000000E+00  0.00000000E+00
