Ga Co  S  V  H                          
   1.0000000000000000     
    10.5972165219785097   -0.0000000000920660   -0.0000000000000000
    -5.2986082111453578    9.1774609243904042    0.0000000000000000
    -0.0000000000000000   -0.0000000000000000   29.6841808476696620
   Ga   Co   S    V    H 
    18     9    35     1     1
Direct
  0.1707560889473158  0.2798226268539378  0.5929299493099633
  0.2789083915039509  0.1683012820576721  0.3694822230636440
  0.1654992525236142  0.6087766706867253  0.5924232814035427
  0.2789083906075729  0.4994956076903557  0.3694822230636440
  0.1654992516275832  0.9456117484866292  0.5924232814035427
  0.2777778329655831  0.8333331669977753  0.3701106474374212
  0.5193938938757795  0.3165659533010712  0.5917848108116230
  0.6116153927176671  0.1683012820576703  0.3694822230636440
  0.5193938929758276  0.5917171066828443  0.5917848108116230
  0.6111111661783042  0.4999998333333338  0.3680989961358501
  0.5023343280788870  0.9456117484866366  0.5924232814035427
  0.6116153909248988  0.8322026102519768  0.3694822230636440
  0.8312883723570090  0.2798226268539260  0.5929299493099633
  0.9444444993910253  0.1666664996688922  0.3701972605397973
  0.7945450450166475  0.5917171066827508  0.5917848108116230
  0.9428097161060561  0.4994956076903523  0.3694822230636440
  0.8312883705639155  0.9403549129588027  0.5929299493099633
  0.9428097152096725  0.8322026102519755  0.3694822230636440
  0.0558297177335397  0.0552812842264373  0.4808390569316527
  0.0558297168373853  0.3894372638871387  0.4808390569316527
  0.0546156499478328  0.7217522415565555  0.4801402255107916
  0.3893587600488673  0.0564953502202084  0.4801402255107916
  0.3907662800544412  0.3898275563393852  0.4794630912258803
  0.3893587582556736  0.7217522415565699  0.4801402255107916
  0.7216737363703980  0.0552812842264332  0.4808390569316527
  0.7212834430217712  0.3898275563393827  0.4794630912258803
  0.7212834421253607  0.7203447206545659  0.4794630912258803
  0.2778093750979151  0.1673896572867410  0.4453967218065169
  0.1682458908808008  0.2785675278204930  0.5163172194892582
  0.2831809232021131  0.1686849817834631  0.6263543200413609
  0.1660459955399263  0.2774675801499791  0.3325195248526701
  0.2778093742016371  0.4993082160554980  0.4453967218065169
  0.1667429807860407  0.6112641272115801  0.5159113420086942
  0.2831809223059091  0.5033844396629777  0.6263543200413609
  0.1666555553140421  0.6110892762675721  0.3334238446142230
  0.2777778329655831  0.8333331669977753  0.4458480124061338
  0.1667429798900866  0.9443680202242003  0.5159113420086942
  0.2777778329655831  0.8333331669977753  0.6270853957044948
  0.1666555544176587  0.9444554456962101  0.3334238446142230
  0.6118027843527694  0.1673896572867329  0.4453967218065169
  0.5000722431420737  0.2779226518337622  0.5148795794298405
  0.6077265607452920  0.1686849817834548  0.6263543200413609
  0.4996680989681390  0.2771143634858854  0.3316044645355871
  0.6111111661783042  0.4999998333333338  0.4441139234515075
  0.5000722422461252  0.6110387574164474  0.5148795794298405
  0.4996680980718812  0.6114429015903898  0.3316044645355871
  0.6118027825598541  0.8333016266577694  0.4453967218065169
  0.4998468715539570  0.9443680202242098  0.5159113420086942
  0.6077265589524465  0.8279300785535662  0.6263543200413609
  0.5000217224983836  0.9444554456962083  0.3334238446142230
  0.9444444993910253  0.1666664996688922  0.4460694335341476
  0.8325434713900794  0.2785675278204908  0.5163172194892582
  0.9444444993910253  0.1666664996688922  0.6264650855909942
  0.8336434190604404  0.2774675801499810  0.3325195248526701
  0.9437213408771364  0.4993082160554909  0.4453967218065169
  0.8331883464800558  0.6110387574164565  0.5148795794298405
  0.9424260163803456  0.5033844396629721  0.6263543200413609
  0.8339966348282344  0.6114429015903914  0.3316044645355871
  0.9437213399805060  0.8333016266577700  0.4453967218065169
  0.8325434695973604  0.9428651110256825  0.5163172194892582
  0.9424260154837114  0.8279300785535687  0.6263543200413609
  0.8336434172678738  0.9450650063667060  0.3325195248526701
  0.6111109439560849  0.5000000555555530  0.6523779181670291
  0.6111109439560849  0.5000000555555530  0.7095222891165144

  0.00000000E+00  0.00000000E+00  0.00000000E+00
  0.00000000E+00  0.00000000E+00  0.00000000E+00
  0.00000000E+00  0.00000000E+00  0.00000000E+00
  0.00000000E+00  0.00000000E+00  0.00000000E+00
  0.00000000E+00  0.00000000E+00  0.00000000E+00
  0.00000000E+00  0.00000000E+00  0.00000000E+00
  0.00000000E+00  0.00000000E+00  0.00000000E+00
  0.00000000E+00  0.00000000E+00  0.00000000E+00
  0.00000000E+00  0.00000000E+00  0.00000000E+00
  0.00000000E+00  0.00000000E+00  0.00000000E+00
  0.00000000E+00  0.00000000E+00  0.00000000E+00
  0.00000000E+00  0.00000000E+00  0.00000000E+00
  0.00000000E+00  0.00000000E+00  0.00000000E+00
  0.00000000E+00  0.00000000E+00  0.00000000E+00
  0.00000000E+00  0.00000000E+00  0.00000000E+00
  0.00000000E+00  0.00000000E+00  0.00000000E+00
  0.00000000E+00  0.00000000E+00  0.00000000E+00
  0.00000000E+00  0.00000000E+00  0.00000000E+00
  0.00000000E+00  0.00000000E+00  0.00000000E+00
  0.00000000E+00  0.00000000E+00  0.00000000E+00
  0.00000000E+00  0.00000000E+00  0.00000000E+00
  0.00000000E+00  0.00000000E+00  0.00000000E+00
  0.00000000E+00  0.00000000E+00  0.00000000E+00
  0.00000000E+00  0.00000000E+00  0.00000000E+00
  0.00000000E+00  0.00000000E+00  0.00000000E+00
  0.00000000E+00  0.00000000E+00  0.00000000E+00
  0.00000000E+00  0.00000000E+00  0.00000000E+00
  0.00000000E+00  0.00000000E+00  0.00000000E+00
  0.00000000E+00  0.00000000E+00  0.00000000E+00
  0.00000000E+00  0.00000000E+00  0.00000000E+00
  0.00000000E+00  0.00000000E+00  0.00000000E+00
  0.00000000E+00  0.00000000E+00  0.00000000E+00
  0.00000000E+00  0.00000000E+00  0.00000000E+00
  0.00000000E+00  0.00000000E+00  0.00000000E+00
  0.00000000E+00  0.00000000E+00  0.00000000E+00
  0.00000000E+00  0.00000000E+00  0.00000000E+00
  0.00000000E+00  0.00000000E+00  0.00000000E+00
  0.00000000E+00  0.00000000E+00  0.00000000E+00
  0.00000000E+00  0.00000000E+00  0.00000000E+00
  0.00000000E+00  0.00000000E+00  0.00000000E+00
  0.00000000E+00  0.00000000E+00  0.00000000E+00
  0.00000000E+00  0.00000000E+00  0.00000000E+00
  0.00000000E+00  0.00000000E+00  0.00000000E+00
  0.00000000E+00  0.00000000E+00  0.00000000E+00
  0.00000000E+00  0.00000000E+00  0.00000000E+00
  0.00000000E+00  0.00000000E+00  0.00000000E+00
  0.00000000E+00  0.00000000E+00  0.00000000E+00
  0.00000000E+00  0.00000000E+00  0.00000000E+00
  0.00000000E+00  0.00000000E+00  0.00000000E+00
  0.00000000E+00  0.00000000E+00  0.00000000E+00
  0.00000000E+00  0.00000000E+00  0.00000000E+00
  0.00000000E+00  0.00000000E+00  0.00000000E+00
  0.00000000E+00  0.00000000E+00  0.00000000E+00
  0.00000000E+00  0.00000000E+00  0.00000000E+00
  0.00000000E+00  0.00000000E+00  0.00000000E+00
  0.00000000E+00  0.00000000E+00  0.00000000E+00
  0.00000000E+00  0.00000000E+00  0.00000000E+00
  0.00000000E+00  0.00000000E+00  0.00000000E+00
  0.00000000E+00  0.00000000E+00  0.00000000E+00
  0.00000000E+00  0.00000000E+00  0.00000000E+00
  0.00000000E+00  0.00000000E+00  0.00000000E+00
  0.00000000E+00  0.00000000E+00  0.00000000E+00
  0.00000000E+00  0.00000000E+00  0.00000000E+00
  0.00000000E+00  0.00000000E+00  0.00000000E+00
