Ga Co  S Cr                             
   1.0000000000000000     
    10.5982600229318038   -0.0000000000934610    0.0000000000000000
    -5.2991299616182959    9.1783646228363960   -0.0000000000000000
     0.0000000000000000   -0.0000000000000000   29.7290181410836816
   Ga   Co   S    Cr
    18     9    35     1
Direct
  0.1691349070429794  0.2790120358929417  0.5923385678841584
  0.2783641272436750  0.1679266389620152  0.3695509627520121
  0.1659286131033315  0.6096353918452727  0.5919507879134805
  0.2783641263636639  0.4993259865355984  0.3695509627520121
  0.1659286121727895  0.9451823879077987  0.5919507879134805
  0.2777778329655831  0.8333331669977753  0.3700619027126578
  0.5159976438115854  0.3097734531859979  0.5910333748300778
  0.6117850138818655  0.1679266389617600  0.3695509627520121
  0.5159976434296313  0.5951133567337245  0.5910333748300778
  0.6111111661783042  0.4999998333333338  0.3681878607815637
  0.5014756069539632  0.9451823879069191  0.5919507879134805
  0.6117850120956024  0.8327468745022242  0.3695509627520121
  0.8320989633003492  0.2790120358933837  0.5923385678841584
  0.9444444993910253  0.1666664996688922  0.3699115109252767
  0.8013375446270371  0.5951133567469448  0.5910333748300778
  0.9431843591956280  0.4993259865357624  0.3695509627520121
  0.8320989615249113  0.9419760948803410  0.5923385678841584
  0.9431843582893833  0.8327468745026427  0.3695509627520121
  0.0555404334475280  0.0555705684958524  0.4807675028132121
  0.0555404325684081  0.3888586953487464  0.4807675028132121
  0.0545151824959068  0.7217020078759623  0.4805667454246706
  0.3894089937294606  0.0565958175837275  0.4805667454246706
  0.3902009735980762  0.3895449030805907  0.4797535860526424
  0.3894089920270062  0.7217020078736441  0.4805667454246706
  0.7222523049253869  0.0555705684954104  0.4807675028132121
  0.7215660962193421  0.3895449030821619  0.4797535860526424
  0.7215660953841551  0.7209100271705812  0.4797535860526424
  0.2773016882205236  0.1672291024212066  0.4453168646003775
  0.1674316866789900  0.2781604257728847  0.5162689748748214
  0.2829827892950620  0.1692490481804642  0.6266630905827109
  0.1661540802387839  0.2775216224965023  0.3324221607485581
  0.2773016871161813  0.4989610839399541  0.4453168646003775
  0.1665574545780958  0.6108930747983307  0.5160156516526365
  0.2829827883701462  0.5026222393803759  0.6266630905827109
  0.1666248980455757  0.6110279617309008  0.3332784944203750
  0.2777778329655831  0.8333331669977753  0.4455573944476480
  0.1665574537848544  0.9445535464295056  0.5160156516526365
  0.2777778329655831  0.8333331669977753  0.6275920152585334
  0.1666248971593718  0.9444861029644150  0.3332784944203750
  0.6121499163699747  0.1672291024238636  0.4453168646003775
  0.5006968049984821  0.2791717755385181  0.5148008268827714
  0.6084887610500819  0.1692490481799047  0.6266630905827109
  0.4995544675609135  0.2768871006713235  0.3319005759232502
  0.6111111661783042  0.4999998333333338  0.4438720401453726
  0.5006968037889231  0.6104141955680998  0.5148008268827714
  0.4995544666603653  0.6115565329977259  0.3319005759232502
  0.6121499144726812  0.8338093136415308  0.4453168646003775
  0.5002179238671339  0.9445535464321549  0.5160156516526365
  0.6084887592070740  0.8281282124404558  0.6266630905827109
  0.5000830370251370  0.9444861029646748  0.3332784944203750
  0.9444444993910253  0.1666664996688922  0.4456537123281663
  0.8329505735442819  0.2781604257701426  0.5162689748748214
  0.9444444993910253  0.1666664996688922  0.6273575401678138
  0.8335893767081062  0.2775216224966534  0.3324221607485581
  0.9438818958417005  0.4989610839372641  0.4453168646003775
  0.8319392230808492  0.6104141955600483  0.5148008268827714
  0.9418619500327691  0.5026222393790809  0.6266630905827109
  0.8342238976469760  0.6115565329976170  0.3319005759232502
  0.9438818950487565  0.8338093136361837  0.4453168646003775
  0.8329505716449691  0.9436793151236387  0.5162689748748214
  0.9418619491146848  0.8281282124397206  0.6266630905827109
  0.8335893749213510  0.9449569216735103  0.3324221607485581
  0.6111109439560849  0.5000000555555530  0.6468229018326954

  0.00000000E+00  0.00000000E+00  0.00000000E+00
  0.00000000E+00  0.00000000E+00  0.00000000E+00
  0.00000000E+00  0.00000000E+00  0.00000000E+00
  0.00000000E+00  0.00000000E+00  0.00000000E+00
  0.00000000E+00  0.00000000E+00  0.00000000E+00
  0.00000000E+00  0.00000000E+00  0.00000000E+00
  0.00000000E+00  0.00000000E+00  0.00000000E+00
  0.00000000E+00  0.00000000E+00  0.00000000E+00
  0.00000000E+00  0.00000000E+00  0.00000000E+00
  0.00000000E+00  0.00000000E+00  0.00000000E+00
  0.00000000E+00  0.00000000E+00  0.00000000E+00
  0.00000000E+00  0.00000000E+00  0.00000000E+00
  0.00000000E+00  0.00000000E+00  0.00000000E+00
  0.00000000E+00  0.00000000E+00  0.00000000E+00
  0.00000000E+00  0.00000000E+00  0.00000000E+00
  0.00000000E+00  0.00000000E+00  0.00000000E+00
  0.00000000E+00  0.00000000E+00  0.00000000E+00
  0.00000000E+00  0.00000000E+00  0.00000000E+00
  0.00000000E+00  0.00000000E+00  0.00000000E+00
  0.00000000E+00  0.00000000E+00  0.00000000E+00
  0.00000000E+00  0.00000000E+00  0.00000000E+00
  0.00000000E+00  0.00000000E+00  0.00000000E+00
  0.00000000E+00  0.00000000E+00  0.00000000E+00
  0.00000000E+00  0.00000000E+00  0.00000000E+00
  0.00000000E+00  0.00000000E+00  0.00000000E+00
  0.00000000E+00  0.00000000E+00  0.00000000E+00
  0.00000000E+00  0.00000000E+00  0.00000000E+00
  0.00000000E+00  0.00000000E+00  0.00000000E+00
  0.00000000E+00  0.00000000E+00  0.00000000E+00
  0.00000000E+00  0.00000000E+00  0.00000000E+00
  0.00000000E+00  0.00000000E+00  0.00000000E+00
  0.00000000E+00  0.00000000E+00  0.00000000E+00
  0.00000000E+00  0.00000000E+00  0.00000000E+00
  0.00000000E+00  0.00000000E+00  0.00000000E+00
  0.00000000E+00  0.00000000E+00  0.00000000E+00
  0.00000000E+00  0.00000000E+00  0.00000000E+00
  0.00000000E+00  0.00000000E+00  0.00000000E+00
  0.00000000E+00  0.00000000E+00  0.00000000E+00
  0.00000000E+00  0.00000000E+00  0.00000000E+00
  0.00000000E+00  0.00000000E+00  0.00000000E+00
  0.00000000E+00  0.00000000E+00  0.00000000E+00
  0.00000000E+00  0.00000000E+00  0.00000000E+00
  0.00000000E+00  0.00000000E+00  0.00000000E+00
  0.00000000E+00  0.00000000E+00  0.00000000E+00
  0.00000000E+00  0.00000000E+00  0.00000000E+00
  0.00000000E+00  0.00000000E+00  0.00000000E+00
  0.00000000E+00  0.00000000E+00  0.00000000E+00
  0.00000000E+00  0.00000000E+00  0.00000000E+00
  0.00000000E+00  0.00000000E+00  0.00000000E+00
  0.00000000E+00  0.00000000E+00  0.00000000E+00
  0.00000000E+00  0.00000000E+00  0.00000000E+00
  0.00000000E+00  0.00000000E+00  0.00000000E+00
  0.00000000E+00  0.00000000E+00  0.00000000E+00
  0.00000000E+00  0.00000000E+00  0.00000000E+00
  0.00000000E+00  0.00000000E+00  0.00000000E+00
  0.00000000E+00  0.00000000E+00  0.00000000E+00
  0.00000000E+00  0.00000000E+00  0.00000000E+00
  0.00000000E+00  0.00000000E+00  0.00000000E+00
  0.00000000E+00  0.00000000E+00  0.00000000E+00
  0.00000000E+00  0.00000000E+00  0.00000000E+00
  0.00000000E+00  0.00000000E+00  0.00000000E+00
  0.00000000E+00  0.00000000E+00  0.00000000E+00
  0.00000000E+00  0.00000000E+00  0.00000000E+00
