Ga Co  S Mn  H                          
   1.0000000000000000     
    10.5838463023728426   -0.0000000001661789   -0.0000000000000000
    -5.2919231014696964    9.1658819661087367    0.0000000000000000
     0.0000000000000000    0.0000000000000000   29.6825398611190820
   Ga   Co   S    Mn   H 
    18     9    35     1     1
Direct
  0.1692438849974865  0.2790665248792676  0.5925020271000146
  0.2785486181565095  0.1674941657780762  0.3695848168258867
  0.1663789328886061  0.6105360314167229  0.5922669721902613
  0.2785486172601933  0.4999429506225239  0.3695848168258867
  0.1663789319931258  0.9447320681216231  0.5922669721902613
  0.2777778329655831  0.8333331669977753  0.3694570134417277
  0.5175898952638216  0.3129579560773084  0.5920441344834675
  0.6111680497855114  0.1674941657780741  0.3695848168258867
  0.5175898943698223  0.5935211052946492  0.5920441344834675
  0.6111111661783042  0.4999998333333338  0.3682267395684299
  0.5005749673483527  0.9447320681216447  0.5922669721902613
  0.6111680479927910  0.8325623835994032  0.3695848168258867
  0.8320444743321681  0.2790665248792433  0.5925020271000146
  0.9444444993910253  0.1666664996688922  0.3696613449251269
  0.7981530422346103  0.5935211052947087  0.5920441344834675
  0.9436168323856050  0.4999429506225219  0.3695848168258867
  0.8320444725385854  0.9418671169081555  0.5925020271000146
  0.9436168314892077  0.8325623835994033  0.3695848168258867
  0.0557615682616147  0.0553494336982772  0.4808581403968997
  0.0557615673655477  0.3893009649434612  0.4808581403968997
  0.0547483785836616  0.7218186058737261  0.4806767054503309
  0.3892923957316967  0.0563626215858292  0.4806767054503309
  0.3900117529016261  0.3894502927626020  0.4796867885058027
  0.3892923939370154  0.7218186058737788  0.4806767054503309
  0.7218100353141607  0.0553494336982709  0.4808581403968997
  0.7216607065978031  0.3894502927626188  0.4796867885058027
  0.7216607057021436  0.7210992478081130  0.4796867885058027
  0.2780378994462678  0.1669070082605651  0.4454511140951032
  0.1669450914151741  0.2779171280874549  0.5161118402777803
  0.2826629984929981  0.1690373949540158  0.6267525893329235
  0.1667807919581611  0.2778349783591451  0.3325168458891544
  0.2780378985500224  0.5000193894309469  0.4454511140951032
  0.1671779247870409  0.6121340152135731  0.5160669474369981
  0.2826629975977757  0.5025141017824700  0.6267525893329235
  0.1663797849873298  0.6105377356141544  0.3328220432297120
  0.2777778329655831  0.8333331669977753  0.4449636833355221
  0.1671779238908136  0.9439330762232078  0.5160669474369981
  0.2777778329655831  0.8333331669977753  0.6283436317525816
  0.1663797840912175  0.9447312160229157  0.3328220432297120
  0.6110916109782397  0.1669070082605333  0.4454511140951032
  0.5009767361431601  0.2797316378359270  0.5154061717272345
  0.6085968986249343  0.1690373949540291  0.6267525893329235
  0.4995555282436684  0.2768892220369465  0.3317893772845029
  0.6111111661783042  0.4999998333333338  0.4441019694271696
  0.5009767352469027  0.6101342644153691  0.5154061717272346
  0.4995555273475036  0.6115554723148577  0.3317893772845029
  0.6110916091844365  0.8330731023085194  0.4454511140951032
  0.4989769835522299  0.9439330762232097  0.5160669474369981
  0.6085968968339107  0.8284480032634738  0.6267525893329235
  0.5005732631515367  0.9447312160229210  0.3328220432297120
  0.9444444993910253  0.1666664996688922  0.4453798105431398
  0.8331938711226679  0.2779171280874645  0.5161118402777803
  0.9444444993910253  0.1666664996688922  0.6273226792692465
  0.8332760208513712  0.2778349783591446  0.3325168458891544
  0.9442039899042014  0.5000193894309167  0.4454511140951032
  0.8313793604781918  0.6101342644153701  0.5154061717272346
  0.9420736032079969  0.5025141017825115  0.6267525893329235
  0.8342217762770828  0.6115554723148616  0.3317893772845029
  0.9442039890066504  0.8330731023085212  0.4454511140951032
  0.8331938693303983  0.9441659104917468  0.5161118402777803
  0.9420736023122022  0.8284480032635023  0.6267525893329235
  0.8332760190587082  0.9443302099483768  0.3325168458891544
  0.6111109439560849  0.5000000555555530  0.6514534329421795
  0.6111109439560849  0.5000000555555530  0.7061123132791198

  0.00000000E+00  0.00000000E+00  0.00000000E+00
  0.00000000E+00  0.00000000E+00  0.00000000E+00
  0.00000000E+00  0.00000000E+00  0.00000000E+00
  0.00000000E+00  0.00000000E+00  0.00000000E+00
  0.00000000E+00  0.00000000E+00  0.00000000E+00
  0.00000000E+00  0.00000000E+00  0.00000000E+00
  0.00000000E+00  0.00000000E+00  0.00000000E+00
  0.00000000E+00  0.00000000E+00  0.00000000E+00
  0.00000000E+00  0.00000000E+00  0.00000000E+00
  0.00000000E+00  0.00000000E+00  0.00000000E+00
  0.00000000E+00  0.00000000E+00  0.00000000E+00
  0.00000000E+00  0.00000000E+00  0.00000000E+00
  0.00000000E+00  0.00000000E+00  0.00000000E+00
  0.00000000E+00  0.00000000E+00  0.00000000E+00
  0.00000000E+00  0.00000000E+00  0.00000000E+00
  0.00000000E+00  0.00000000E+00  0.00000000E+00
  0.00000000E+00  0.00000000E+00  0.00000000E+00
  0.00000000E+00  0.00000000E+00  0.00000000E+00
  0.00000000E+00  0.00000000E+00  0.00000000E+00
  0.00000000E+00  0.00000000E+00  0.00000000E+00
  0.00000000E+00  0.00000000E+00  0.00000000E+00
  0.00000000E+00  0.00000000E+00  0.00000000E+00
  0.00000000E+00  0.00000000E+00  0.00000000E+00
  0.00000000E+00  0.00000000E+00  0.00000000E+00
  0.00000000E+00  0.00000000E+00  0.00000000E+00
  0.00000000E+00  0.00000000E+00  0.00000000E+00
  0.00000000E+00  0.00000000E+00  0.00000000E+00
  0.00000000E+00  0.00000000E+00  0.00000000E+00
  0.00000000E+00  0.00000000E+00  0.00000000E+00
  0.00000000E+00  0.00000000E+00  0.00000000E+00
  0.00000000E+00  0.00000000E+00  0.00000000E+00
  0.00000000E+00  0.00000000E+00  0.00000000E+00
  0.00000000E+00  0.00000000E+00  0.00000000E+00
  0.00000000E+00  0.00000000E+00  0.00000000E+00
  0.00000000E+00  0.00000000E+00  0.00000000E+00
  0.00000000E+00  0.00000000E+00  0.00000000E+00
  0.00000000E+00  0.00000000E+00  0.00000000E+00
  0.00000000E+00  0.00000000E+00  0.00000000E+00
  0.00000000E+00  0.00000000E+00  0.00000000E+00
  0.00000000E+00  0.00000000E+00  0.00000000E+00
  0.00000000E+00  0.00000000E+00  0.00000000E+00
  0.00000000E+00  0.00000000E+00  0.00000000E+00
  0.00000000E+00  0.00000000E+00  0.00000000E+00
  0.00000000E+00  0.00000000E+00  0.00000000E+00
  0.00000000E+00  0.00000000E+00  0.00000000E+00
  0.00000000E+00  0.00000000E+00  0.00000000E+00
  0.00000000E+00  0.00000000E+00  0.00000000E+00
  0.00000000E+00  0.00000000E+00  0.00000000E+00
  0.00000000E+00  0.00000000E+00  0.00000000E+00
  0.00000000E+00  0.00000000E+00  0.00000000E+00
  0.00000000E+00  0.00000000E+00  0.00000000E+00
  0.00000000E+00  0.00000000E+00  0.00000000E+00
  0.00000000E+00  0.00000000E+00  0.00000000E+00
  0.00000000E+00  0.00000000E+00  0.00000000E+00
  0.00000000E+00  0.00000000E+00  0.00000000E+00
  0.00000000E+00  0.00000000E+00  0.00000000E+00
  0.00000000E+00  0.00000000E+00  0.00000000E+00
  0.00000000E+00  0.00000000E+00  0.00000000E+00
  0.00000000E+00  0.00000000E+00  0.00000000E+00
  0.00000000E+00  0.00000000E+00  0.00000000E+00
  0.00000000E+00  0.00000000E+00  0.00000000E+00
  0.00000000E+00  0.00000000E+00  0.00000000E+00
  0.00000000E+00  0.00000000E+00  0.00000000E+00
  0.00000000E+00  0.00000000E+00  0.00000000E+00
