Ga Co  S Mn  H 
 1.0000000000000000
    10.6134278999999996    0.0000000000000000    0.0000000000000000
    -5.3067139000000001    9.1915004000000007    0.0000000000000000
     0.0000000000000000    0.0000000000000000   30.0000000000000000
 Ga  Co  S   Mn  H  
  18   9  35   1   1
Cartesian
  0.2948154085544911  2.5531950641655587 17.6951076235572629
  2.0637235909672285  1.5319151983732258 11.1024275906777667
 -1.4740892360489291  5.6170285338755699 17.6951076235572629
  0.2948189463637706  4.5957486680833020 11.1024275906777667
 -3.2429938806523864  8.6808620035856467 17.6951076235572629
 -1.4740856982396491  7.6595821377933131 11.1024275906777667
  3.8326246977614069  2.5531950641655587 17.6951076235572629
  5.6015328801740685  1.5319151983732258 11.1024275906777667
  2.0637200531579869  5.6170285338755699 17.6951076235572629
  3.8326282355706107  4.5957486680833020 11.1024275906777667
  0.2948154085545292  8.6808620035856467 17.6951076235572629
  2.0637235909671912  7.6595821377933131 11.1024275906777667
  7.3704339869682460  2.5531950641655587 17.6951076235572629
  9.1393421693809831  1.5319151983732258 11.1024275906777667
  5.6015293423648265  5.6170285338755699 17.6951076235572629
  7.3704375247775253  4.5957486680833020 11.1024275906777667
  3.8326246977613687  8.6808620035856467 17.6951076235572629
  5.6015328801741058  7.6595821377933131 11.1024275906777667
  0.2948171774591309  0.5106383964143539 14.3987676071175130
 -1.4740874671443267  3.5744718661244304 14.3987676071175130
 -3.2429921117477463  6.6383053358344410 14.3987676071175130
  3.8326264666660461  0.5106383964143539 14.3987676071175130
  2.0637218220625884  3.5744718661244304 14.3987676071175130
  0.2948171774591685  6.6383053358344410 14.3987676071175130
  7.3704357558728857  0.5106383964143539 14.3987676071175130
  5.6015311112694279  3.5744718661244304 14.3987676071175130
  3.8326264666660084  6.6383053358344410 14.3987676071175130
  2.0637235909672285  1.5319151983732258 13.3518089400783815
  0.2948154085544911  2.5531950641655587 15.4457262741566446
  2.0637235909672285  1.5319151983732258 18.7926428377923180
  0.2948154085544911  2.5531950641655587 10.0048923764427045
  0.2948189463637706  4.5957486680833020 13.3518089400783815
 -1.4740892360489291  5.6170285338755699 15.4457262741566446
  0.2948189463637706  4.5957486680833020 18.7926428377923180
 -1.4740892360489291  5.6170285338755699 10.0048923764427045
 -1.4740856982396491  7.6595821377933131 13.3518089400783815
 -3.2429938806523864  8.6808620035856467 15.4457262741566446
 -1.4740856982396491  7.6595821377933131 18.7926428377923180
 -3.2429938806523864  8.6808620035856467 10.0048923764427045
  5.6015328801740685  1.5319151983732258 13.3518089400783815
  3.8326246977614069  2.5531950641655587 15.4457262741566446
  5.6015328801740685  1.5319151983732258 18.7926428377923180
  3.8326246977614069  2.5531950641655587 10.0048923764427045
  3.8326282355706107  4.5957486680833020 13.3518089400783815
  2.0637200531579869  5.6170285338755699 15.4457262741566446
  2.0637200531579869  5.6170285338755699 10.0048923764427045
  2.0637235909671912  7.6595821377933131 13.3518089400783815
  0.2948154085545292  8.6808620035856467 15.4457262741566446
  2.0637235909671912  7.6595821377933131 18.7926428377923180
  0.2948154085545292  8.6808620035856467 10.0048923764427045
  9.1393421693809831  1.5319151983732258 13.3518089400783815
  7.3704339869682460  2.5531950641655587 15.4457262741566446
  9.1393421693809831  1.5319151983732258 18.7926428377923180
  7.3704339869682460  2.5531950641655587 10.0048923764427045
  7.3704375247775253  4.5957486680833020 13.3518089400783815
  5.6015293423648265  5.6170285338755699 15.4457262741566446
  7.3704375247775253  4.5957486680833020 18.7926428377923180
  5.6015293423648265  5.6170285338755699 10.0048923764427045
  5.6015328801741058  7.6595821377933131 13.3518089400783815
  3.8326246977613687  8.6808620035856467 15.4457262741566446
  5.6015328801741058  7.6595821377933131 18.7926428377923180
  3.8326246977613687  8.6808620035856467 10.0048923764427045
  3.8326246977614065  4.5957507106388995 19.9951076235572955
  3.8326246977614065  4.5957507106388995 21.4951076235572955
