generated by phonopy
   1.0
    10.6804354994071744    0.0000000000000000    0.0000000000000000
    -5.3402177497035872    9.2495307638937394    0.0000000000000000
     0.0000000000000000    0.0000000000000000   28.8685630000000018
Ga Co S
  18    9   36
Direct
  0.1111110000000011  0.2222223333333322  0.6148452690872820
  0.4444443333333344  0.2222223333333322  0.6148452690872820
  0.7777776666666677  0.2222223333333322  0.6148452690872820
  0.1111110000000011  0.5555556666666656  0.6148452690872820
  0.4444443333333344  0.5555556666666656  0.6148452690872820
  0.7777776666666677  0.5555556666666656  0.6148452690872820
  0.1111110000000011  0.8888889999999989  0.6148452690872820
  0.4444443333333344  0.8888889999999989  0.6148452690872820
  0.7777776666666677  0.8888889999999989  0.6148452690872820
  0.2222223333333322  0.1111110000000011  0.3851547309127181
  0.5555556666666656  0.1111110000000011  0.3851547309127181
  0.8888889999999989  0.1111110000000011  0.3851547309127181
  0.2222223333333322  0.4444443333333344  0.3851547309127181
  0.5555556666666656  0.4444443333333344  0.3851547309127181
  0.8888889999999989  0.4444443333333344  0.3851547309127181
  0.2222223333333322  0.7777776666666677  0.3851547309127181
  0.5555556666666656  0.7777776666666677  0.3851547309127181
  0.8888889999999989  0.7777776666666677  0.3851547309127181
  0.0000000000000000  0.0000000000000000  0.5000000000000000
  0.3333333333333333  0.0000000000000000  0.5000000000000000
  0.6666666666666666  0.0000000000000000  0.5000000000000000
  0.0000000000000000  0.3333333333333333  0.5000000000000000
  0.3333333333333333  0.3333333333333333  0.5000000000000000
  0.6666666666666666  0.3333333333333333  0.5000000000000000
  0.0000000000000000  0.6666666666666666  0.5000000000000000
  0.3333333333333333  0.6666666666666666  0.5000000000000000
  0.6666666666666666  0.6666666666666666  0.5000000000000000
  0.2222223333333322  0.1111110000000011  0.4635904609231027
  0.5555556666666656  0.1111110000000011  0.4635904609231027
  0.8888889999999989  0.1111110000000011  0.4635904609231027
  0.2222223333333322  0.4444443333333344  0.4635904609231027
  0.5555556666666656  0.4444443333333344  0.4635904609231027
  0.8888889999999989  0.4444443333333344  0.4635904609231027
  0.2222223333333322  0.7777776666666677  0.4635904609231027
  0.5555556666666656  0.7777776666666677  0.4635904609231027
  0.8888889999999989  0.7777776666666677  0.4635904609231027
  0.1111110000000011  0.2222223333333322  0.5364095390768975
  0.4444443333333344  0.2222223333333322  0.5364095390768975
  0.7777776666666677  0.2222223333333322  0.5364095390768975
  0.1111110000000011  0.5555556666666656  0.5364095390768975
  0.4444443333333344  0.5555556666666656  0.5364095390768975
  0.7777776666666677  0.5555556666666656  0.5364095390768975
  0.1111110000000011  0.8888889999999989  0.5364095390768975
  0.4444443333333344  0.8888889999999989  0.5364095390768975
  0.7777776666666677  0.8888889999999989  0.5364095390768975
  0.2222223333333322  0.1111110000000011  0.6526044359140531
  0.5555556666666656  0.1111110000000011  0.6526044359140531
  0.8888889999999989  0.1111110000000011  0.6526044359140531
  0.2222223333333322  0.4444443333333344  0.6526044359140531
  0.5555556666666656  0.4444443333333344  0.6526044359140531
  0.8888889999999989  0.4444443333333344  0.6526044359140531
  0.2222223333333322  0.7777776666666677  0.6526044359140531
  0.5555556666666656  0.7777776666666677  0.6526044359140531
  0.8888889999999989  0.7777776666666677  0.6526044359140531
  0.1111110000000011  0.2222223333333322  0.3473955640859469
  0.4444443333333344  0.2222223333333322  0.3473955640859469
  0.7777776666666677  0.2222223333333322  0.3473955640859469
  0.1111110000000011  0.5555556666666656  0.3473955640859469
  0.4444443333333344  0.5555556666666656  0.3473955640859469
  0.7777776666666677  0.5555556666666656  0.3473955640859469
  0.1111110000000011  0.8888889999999989  0.3473955640859469
  0.4444443333333344  0.8888889999999989  0.3473955640859469
  0.7777776666666677  0.8888889999999989  0.3473955640859469
