Ga Co  S Co                             
   1.0000000000000000     
    10.5936643879888699   -0.0000000001204820   -0.0000000000000000
    -5.2968321441918826    9.1743846832071618    0.0000000000000000
     0.0000000000000000    0.0000000000000000   29.6879250750441024
   Ga   Co   S    Co
    18     9    35     1
Direct
  0.1689818844735124  0.2789355246193227  0.5924217507087565
  0.2781457131442663  0.1671270935355571  0.3695938058728770
  0.1660006109046969  0.6097793874489662  0.5920417334432109
  0.2781457122473195  0.4999071178536325  0.3695938058728770
  0.1660006100116007  0.9451103901054712  0.5920417334432109
  0.2777778329655831  0.8333331669977753  0.3694128392156743
  0.5151034294645387  0.3079850244771837  0.5921156410036975
  0.6112038825552513  0.1671270935355336  0.3695938058728770
  0.5151034285098612  0.5960075710954913  0.5921156410036975
  0.6111111661783042  0.4999998333333338  0.3687777728650035
  0.5013316113137868  0.9451103901055541  0.5920417334432109
  0.6112038807610681  0.8329652886108517  0.3695938058728770
  0.8321754745961976  0.2789355246191932  0.5924217507087565
  0.9444444993910253  0.1666664996688922  0.3698305924449464
  0.8031259738938546  0.5960075710939916  0.5921156410036975
  0.9439839046295710  0.4999071178535925  0.3695938058728770
  0.8321754727985304  0.9421291174281502  0.5924217507087565
  0.9439839037323413  0.8329652886108353  0.3695938058728770
  0.0557261552388422  0.0553848467200951  0.4808848591903075
  0.0557261543437550  0.3892301388998507  0.4808848591903075
  0.0547095457680273  0.7217991894661409  0.4807009235441114
  0.3893118121392820  0.0564014544010117  0.4807009235441114
  0.3901178305206905  0.3895033315737872  0.4801927979743766
  0.3893118103450640  0.7217991894661813  0.4807009235441114
  0.7218808613587256  0.0553848467200635  0.4808848591903075
  0.7216076677899236  0.3895033315737189  0.4801927979743766
  0.7216076668909585  0.7209931701858280  0.4801927979743766
  0.2779882047268392  0.1671134705486707  0.4454360894651994
  0.1671950772160124  0.2780421209881486  0.5161626099389638
  0.2819297103213291  0.1688026868308045  0.6269305954011557
  0.1664984062709293  0.2776937855157936  0.3325957402887069
  0.2779882038304949  0.4997632324240101  0.4454360894651994
  0.1670434275204960  0.6118650206804489  0.5159328542853048
  0.2819297094252194  0.5020155217352454  0.6269305954011557
  0.1664519564314265  0.6106820785023719  0.3326865792028975
  0.2777778329655831  0.8333331669977753  0.4449221199734587
  0.1670434266228977  0.9440675734897875  0.5159328542853048
  0.2777778329655831  0.8333331669977753  0.6277310870353353
  0.1664519555362559  0.9446590445787946  0.3326865792028975
  0.6113477679857771  0.1671134705486236  0.4454360894651994
  0.5006220457888837  0.2790222571272989  0.5156025408341565
  0.6090954786734146  0.1688026868307863  0.6269305954011557
  0.4997348722780244  0.2772479101056743  0.3321491006947772
  0.6111111661783042  0.4999998333333338  0.4446353531134271
  0.5006220448896740  0.6104889547697213  0.5156025408341565
  0.4997348713824746  0.6113761282804864  0.3321491006947772
  0.6113477661912771  0.8331227970273686  0.4454360894651994
  0.4992459780866903  0.9440675734897543  0.5159328542853048
  0.6090954768802702  0.8291812914339644  0.6269305954011557
  0.5004289202624019  0.9446590445788248  0.3326865792028975
  0.9444444993910253  0.1666664996688922  0.4456363276576311
  0.8330688782225231  0.2780421209881440  0.5161626099389638
  0.9444444993910253  0.1666664996688922  0.6273953046045163
  0.8334172136952511  0.2776937855157789  0.3325957402887069
  0.9439975276167891  0.4997632324239622  0.4454360894651994
  0.8320887411896969  0.6104889547696464  0.5156025408341565
  0.9423083113333061  0.5020155217352327  0.6269305954011557
  0.8338630882077558  0.6113761282805058  0.3321491006947772
  0.9439975267186411  0.8331227970273678  0.4454360894651994
  0.8330688764297044  0.9439159246903737  0.5161626099389638
  0.9423083104362782  0.8291812914339693  0.6269305954011557
  0.8334172119020600  0.9446125956350938  0.3325957402887069
  0.6111109439560849  0.5000000555555530  0.6369283997991059

  0.00000000E+00  0.00000000E+00  0.00000000E+00
  0.00000000E+00  0.00000000E+00  0.00000000E+00
  0.00000000E+00  0.00000000E+00  0.00000000E+00
  0.00000000E+00  0.00000000E+00  0.00000000E+00
  0.00000000E+00  0.00000000E+00  0.00000000E+00
  0.00000000E+00  0.00000000E+00  0.00000000E+00
  0.00000000E+00  0.00000000E+00  0.00000000E+00
  0.00000000E+00  0.00000000E+00  0.00000000E+00
  0.00000000E+00  0.00000000E+00  0.00000000E+00
  0.00000000E+00  0.00000000E+00  0.00000000E+00
  0.00000000E+00  0.00000000E+00  0.00000000E+00
  0.00000000E+00  0.00000000E+00  0.00000000E+00
  0.00000000E+00  0.00000000E+00  0.00000000E+00
  0.00000000E+00  0.00000000E+00  0.00000000E+00
  0.00000000E+00  0.00000000E+00  0.00000000E+00
  0.00000000E+00  0.00000000E+00  0.00000000E+00
  0.00000000E+00  0.00000000E+00  0.00000000E+00
  0.00000000E+00  0.00000000E+00  0.00000000E+00
  0.00000000E+00  0.00000000E+00  0.00000000E+00
  0.00000000E+00  0.00000000E+00  0.00000000E+00
  0.00000000E+00  0.00000000E+00  0.00000000E+00
  0.00000000E+00  0.00000000E+00  0.00000000E+00
  0.00000000E+00  0.00000000E+00  0.00000000E+00
  0.00000000E+00  0.00000000E+00  0.00000000E+00
  0.00000000E+00  0.00000000E+00  0.00000000E+00
  0.00000000E+00  0.00000000E+00  0.00000000E+00
  0.00000000E+00  0.00000000E+00  0.00000000E+00
  0.00000000E+00  0.00000000E+00  0.00000000E+00
  0.00000000E+00  0.00000000E+00  0.00000000E+00
  0.00000000E+00  0.00000000E+00  0.00000000E+00
  0.00000000E+00  0.00000000E+00  0.00000000E+00
  0.00000000E+00  0.00000000E+00  0.00000000E+00
  0.00000000E+00  0.00000000E+00  0.00000000E+00
  0.00000000E+00  0.00000000E+00  0.00000000E+00
  0.00000000E+00  0.00000000E+00  0.00000000E+00
  0.00000000E+00  0.00000000E+00  0.00000000E+00
  0.00000000E+00  0.00000000E+00  0.00000000E+00
  0.00000000E+00  0.00000000E+00  0.00000000E+00
  0.00000000E+00  0.00000000E+00  0.00000000E+00
  0.00000000E+00  0.00000000E+00  0.00000000E+00
  0.00000000E+00  0.00000000E+00  0.00000000E+00
  0.00000000E+00  0.00000000E+00  0.00000000E+00
  0.00000000E+00  0.00000000E+00  0.00000000E+00
  0.00000000E+00  0.00000000E+00  0.00000000E+00
  0.00000000E+00  0.00000000E+00  0.00000000E+00
  0.00000000E+00  0.00000000E+00  0.00000000E+00
  0.00000000E+00  0.00000000E+00  0.00000000E+00
  0.00000000E+00  0.00000000E+00  0.00000000E+00
  0.00000000E+00  0.00000000E+00  0.00000000E+00
  0.00000000E+00  0.00000000E+00  0.00000000E+00
  0.00000000E+00  0.00000000E+00  0.00000000E+00
  0.00000000E+00  0.00000000E+00  0.00000000E+00
  0.00000000E+00  0.00000000E+00  0.00000000E+00
  0.00000000E+00  0.00000000E+00  0.00000000E+00
  0.00000000E+00  0.00000000E+00  0.00000000E+00
  0.00000000E+00  0.00000000E+00  0.00000000E+00
  0.00000000E+00  0.00000000E+00  0.00000000E+00
  0.00000000E+00  0.00000000E+00  0.00000000E+00
  0.00000000E+00  0.00000000E+00  0.00000000E+00
  0.00000000E+00  0.00000000E+00  0.00000000E+00
  0.00000000E+00  0.00000000E+00  0.00000000E+00
  0.00000000E+00  0.00000000E+00  0.00000000E+00
  0.00000000E+00  0.00000000E+00  0.00000000E+00
